*SPEF "ieee 1481-1999"
*DESIGN "serial2parallel"
*DATE "02:17:11 Saturday September 12, 2026"
*VENDOR "The OpenROAD Project"
*PROGRAM "OpenROAD"
*VERSION "dcf36133a369abc8f3c5e5738cd4d82e4903c0e0"
*DESIGN_FLOW "NAME_SCOPE LOCAL" "PIN_CAP NONE"
*DIVIDER /
*DELIMITER :
*BUS_DELIMITER []
*T_UNIT 1 NS
*C_UNIT 1 PF
*R_UNIT 1 OHM
*L_UNIT 1 HENRY

*NAME_MAP
*3 clk
*4 data_in
*5 done_in
*6 dout[0]
*7 dout[10]
*8 dout[11]
*9 dout[1]
*10 dout[2]
*11 dout[3]
*12 dout[4]
*13 dout[5]
*14 dout[6]
*15 dout[7]
*16 dout[8]
*17 dout[9]
*18 reset
*19 shift_in
*20 _000_
*21 _001_
*22 _002_
*23 _003_
*24 _004_
*25 _005_
*26 _006_
*27 _007_
*28 _008_
*29 _009_
*30 _010_
*31 _011_
*32 _012_
*33 _013_
*34 _014_
*35 _015_
*36 _016_
*37 _017_
*38 _018_
*39 _019_
*40 _020_
*41 _021_
*42 _022_
*43 _023_
*44 _024_
*45 _025_
*46 _026_
*47 _027_
*48 _028_
*49 _029_
*50 _030_
*51 _031_
*52 _032_
*53 _033_
*54 _034_
*55 _035_
*56 _036_
*57 _037_
*58 _038_
*59 _039_
*60 _040_
*61 _041_
*62 _042_
*63 _043_
*64 _044_
*65 _045_
*66 _046_
*67 _047_
*68 _048_
*69 clknet_0_clk
*70 clknet_2_0__leaf_clk
*71 clknet_2_1__leaf_clk
*72 clknet_2_2__leaf_clk
*73 clknet_2_3__leaf_clk
*74 internal_data_reg\[0\]
*75 internal_data_reg\[10\]
*76 internal_data_reg\[11\]
*77 internal_data_reg\[1\]
*78 internal_data_reg\[2\]
*79 internal_data_reg\[3\]
*80 internal_data_reg\[4\]
*81 internal_data_reg\[5\]
*82 internal_data_reg\[6\]
*83 internal_data_reg\[7\]
*84 internal_data_reg\[8\]
*85 internal_data_reg\[9\]
*86 net1
*87 net10
*88 net11
*89 net12
*90 net13
*91 net14
*92 net15
*93 net16
*94 net17
*95 net18
*96 net19
*97 net2
*98 net20
*99 net21
*100 net22
*101 net23
*102 net24
*103 net25
*104 net26
*105 net27
*106 net28
*107 net29
*108 net3
*109 net30
*110 net31
*111 net32
*112 net33
*113 net34
*114 net35
*115 net36
*116 net37
*117 net38
*118 net39
*119 net4
*120 net40
*121 net41
*122 net42
*123 net43
*124 net44
*125 net45
*126 net46
*127 net47
*128 net48
*129 net49
*130 net5
*131 net50
*132 net51
*133 net52
*134 net53
*135 net54
*136 net55
*137 net56
*138 net57
*139 net6
*140 net7
*141 net8
*142 net9
*143 FILLER_0_0
*144 FILLER_0_1003
*145 FILLER_0_1010
*146 FILLER_0_1017
*147 FILLER_0_1024
*148 FILLER_0_1031
*149 FILLER_0_1038
*150 FILLER_0_1045
*151 FILLER_0_105
*152 FILLER_0_1052
*153 FILLER_0_1059
*154 FILLER_0_1066
*155 FILLER_0_1073
*156 FILLER_0_1080
*157 FILLER_0_1087
*158 FILLER_0_1094
*159 FILLER_0_112
*160 FILLER_0_119
*161 FILLER_0_126
*162 FILLER_0_133
*163 FILLER_0_14
*164 FILLER_0_140
*165 FILLER_0_147
*166 FILLER_0_154
*167 FILLER_0_161
*168 FILLER_0_168
*169 FILLER_0_175
*170 FILLER_0_182
*171 FILLER_0_189
*172 FILLER_0_196
*173 FILLER_0_203
*174 FILLER_0_21
*175 FILLER_0_210
*176 FILLER_0_217
*177 FILLER_0_224
*178 FILLER_0_231
*179 FILLER_0_238
*180 FILLER_0_245
*181 FILLER_0_252
*182 FILLER_0_259
*183 FILLER_0_266
*184 FILLER_0_273
*185 FILLER_0_28
*186 FILLER_0_280
*187 FILLER_0_287
*188 FILLER_0_294
*189 FILLER_0_301
*190 FILLER_0_308
*191 FILLER_0_315
*192 FILLER_0_322
*193 FILLER_0_329
*194 FILLER_0_336
*195 FILLER_0_343
*196 FILLER_0_35
*197 FILLER_0_350
*198 FILLER_0_357
*199 FILLER_0_364
*200 FILLER_0_371
*201 FILLER_0_378
*202 FILLER_0_385
*203 FILLER_0_392
*204 FILLER_0_399
*205 FILLER_0_406
*206 FILLER_0_413
*207 FILLER_0_42
*208 FILLER_0_420
*209 FILLER_0_427
*210 FILLER_0_434
*211 FILLER_0_441
*212 FILLER_0_448
*213 FILLER_0_455
*214 FILLER_0_462
*215 FILLER_0_469
*216 FILLER_0_476
*217 FILLER_0_483
*218 FILLER_0_49
*219 FILLER_0_490
*220 FILLER_0_497
*221 FILLER_0_504
*222 FILLER_0_511
*223 FILLER_0_518
*224 FILLER_0_525
*225 FILLER_0_532
*226 FILLER_0_539
*227 FILLER_0_546
*228 FILLER_0_553
*229 FILLER_0_56
*230 FILLER_0_560
*231 FILLER_0_567
*232 FILLER_0_574
*233 FILLER_0_581
*234 FILLER_0_588
*235 FILLER_0_595
*236 FILLER_0_602
*237 FILLER_0_609
*238 FILLER_0_616
*239 FILLER_0_623
*240 FILLER_0_63
*241 FILLER_0_630
*242 FILLER_0_637
*243 FILLER_0_644
*244 FILLER_0_651
*245 FILLER_0_658
*246 FILLER_0_665
*247 FILLER_0_672
*248 FILLER_0_679
*249 FILLER_0_686
*250 FILLER_0_693
*251 FILLER_0_7
*252 FILLER_0_70
*253 FILLER_0_700
*254 FILLER_0_707
*255 FILLER_0_714
*256 FILLER_0_721
*257 FILLER_0_728
*258 FILLER_0_735
*259 FILLER_0_742
*260 FILLER_0_749
*261 FILLER_0_756
*262 FILLER_0_763
*263 FILLER_0_77
*264 FILLER_0_770
*265 FILLER_0_777
*266 FILLER_0_784
*267 FILLER_0_791
*268 FILLER_0_798
*269 FILLER_0_805
*270 FILLER_0_812
*271 FILLER_0_819
*272 FILLER_0_826
*273 FILLER_0_830
*274 FILLER_0_835
*275 FILLER_0_84
*276 FILLER_0_842
*277 FILLER_0_849
*278 FILLER_0_856
*279 FILLER_0_863
*280 FILLER_0_870
*281 FILLER_0_877
*282 FILLER_0_884
*283 FILLER_0_891
*284 FILLER_0_898
*285 FILLER_0_905
*286 FILLER_0_91
*287 FILLER_0_912
*288 FILLER_0_919
*289 FILLER_0_926
*290 FILLER_0_933
*291 FILLER_0_940
*292 FILLER_0_947
*293 FILLER_0_954
*294 FILLER_0_961
*295 FILLER_0_968
*296 FILLER_0_975
*297 FILLER_0_98
*298 FILLER_0_982
*299 FILLER_0_989
*300 FILLER_0_996
*301 FILLER_10_0
*302 FILLER_10_1001
*303 FILLER_10_1008
*304 FILLER_10_1015
*305 FILLER_10_1022
*306 FILLER_10_1029
*307 FILLER_10_1036
*308 FILLER_10_1043
*309 FILLER_10_105
*310 FILLER_10_1050
*311 FILLER_10_1057
*312 FILLER_10_1064
*313 FILLER_10_1071
*314 FILLER_10_1078
*315 FILLER_10_1085
*316 FILLER_10_1092
*317 FILLER_10_1099
*318 FILLER_10_112
*319 FILLER_10_119
*320 FILLER_10_126
*321 FILLER_10_133
*322 FILLER_10_14
*323 FILLER_10_140
*324 FILLER_10_147
*325 FILLER_10_154
*326 FILLER_10_161
*327 FILLER_10_168
*328 FILLER_10_175
*329 FILLER_10_182
*330 FILLER_10_189
*331 FILLER_10_196
*332 FILLER_10_203
*333 FILLER_10_21
*334 FILLER_10_210
*335 FILLER_10_217
*336 FILLER_10_224
*337 FILLER_10_231
*338 FILLER_10_238
*339 FILLER_10_245
*340 FILLER_10_252
*341 FILLER_10_259
*342 FILLER_10_266
*343 FILLER_10_273
*344 FILLER_10_28
*345 FILLER_10_280
*346 FILLER_10_287
*347 FILLER_10_294
*348 FILLER_10_301
*349 FILLER_10_308
*350 FILLER_10_315
*351 FILLER_10_322
*352 FILLER_10_329
*353 FILLER_10_336
*354 FILLER_10_343
*355 FILLER_10_35
*356 FILLER_10_350
*357 FILLER_10_357
*358 FILLER_10_364
*359 FILLER_10_371
*360 FILLER_10_378
*361 FILLER_10_385
*362 FILLER_10_392
*363 FILLER_10_399
*364 FILLER_10_406
*365 FILLER_10_413
*366 FILLER_10_42
*367 FILLER_10_420
*368 FILLER_10_427
*369 FILLER_10_434
*370 FILLER_10_441
*371 FILLER_10_448
*372 FILLER_10_455
*373 FILLER_10_462
*374 FILLER_10_469
*375 FILLER_10_476
*376 FILLER_10_483
*377 FILLER_10_49
*378 FILLER_10_490
*379 FILLER_10_497
*380 FILLER_10_504
*381 FILLER_10_511
*382 FILLER_10_518
*383 FILLER_10_525
*384 FILLER_10_532
*385 FILLER_10_539
*386 FILLER_10_546
*387 FILLER_10_553
*388 FILLER_10_56
*389 FILLER_10_560
*390 FILLER_10_567
*391 FILLER_10_574
*392 FILLER_10_581
*393 FILLER_10_588
*394 FILLER_10_595
*395 FILLER_10_602
*396 FILLER_10_609
*397 FILLER_10_616
*398 FILLER_10_623
*399 FILLER_10_63
*400 FILLER_10_630
*401 FILLER_10_637
*402 FILLER_10_644
*403 FILLER_10_651
*404 FILLER_10_658
*405 FILLER_10_665
*406 FILLER_10_672
*407 FILLER_10_679
*408 FILLER_10_686
*409 FILLER_10_693
*410 FILLER_10_7
*411 FILLER_10_70
*412 FILLER_10_700
*413 FILLER_10_707
*414 FILLER_10_714
*415 FILLER_10_721
*416 FILLER_10_728
*417 FILLER_10_735
*418 FILLER_10_742
*419 FILLER_10_749
*420 FILLER_10_756
*421 FILLER_10_763
*422 FILLER_10_77
*423 FILLER_10_770
*424 FILLER_10_777
*425 FILLER_10_784
*426 FILLER_10_791
*427 FILLER_10_798
*428 FILLER_10_805
*429 FILLER_10_812
*430 FILLER_10_819
*431 FILLER_10_826
*432 FILLER_10_833
*433 FILLER_10_84
*434 FILLER_10_840
*435 FILLER_10_847
*436 FILLER_10_854
*437 FILLER_10_861
*438 FILLER_10_868
*439 FILLER_10_875
*440 FILLER_10_882
*441 FILLER_10_889
*442 FILLER_10_896
*443 FILLER_10_903
*444 FILLER_10_91
*445 FILLER_10_910
*446 FILLER_10_917
*447 FILLER_10_924
*448 FILLER_10_931
*449 FILLER_10_938
*450 FILLER_10_945
*451 FILLER_10_952
*452 FILLER_10_959
*453 FILLER_10_966
*454 FILLER_10_973
*455 FILLER_10_98
*456 FILLER_10_980
*457 FILLER_10_987
*458 FILLER_10_994
*459 FILLER_11_0
*460 FILLER_11_1001
*461 FILLER_11_1008
*462 FILLER_11_1015
*463 FILLER_11_1022
*464 FILLER_11_1029
*465 FILLER_11_1036
*466 FILLER_11_1043
*467 FILLER_11_105
*468 FILLER_11_1050
*469 FILLER_11_1057
*470 FILLER_11_1064
*471 FILLER_11_1071
*472 FILLER_11_1078
*473 FILLER_11_1085
*474 FILLER_11_1092
*475 FILLER_11_1099
*476 FILLER_11_112
*477 FILLER_11_119
*478 FILLER_11_126
*479 FILLER_11_133
*480 FILLER_11_14
*481 FILLER_11_140
*482 FILLER_11_147
*483 FILLER_11_154
*484 FILLER_11_161
*485 FILLER_11_168
*486 FILLER_11_175
*487 FILLER_11_182
*488 FILLER_11_189
*489 FILLER_11_196
*490 FILLER_11_203
*491 FILLER_11_21
*492 FILLER_11_210
*493 FILLER_11_217
*494 FILLER_11_224
*495 FILLER_11_231
*496 FILLER_11_238
*497 FILLER_11_245
*498 FILLER_11_252
*499 FILLER_11_259
*500 FILLER_11_266
*501 FILLER_11_273
*502 FILLER_11_28
*503 FILLER_11_280
*504 FILLER_11_287
*505 FILLER_11_294
*506 FILLER_11_301
*507 FILLER_11_308
*508 FILLER_11_315
*509 FILLER_11_322
*510 FILLER_11_329
*511 FILLER_11_336
*512 FILLER_11_343
*513 FILLER_11_35
*514 FILLER_11_350
*515 FILLER_11_357
*516 FILLER_11_364
*517 FILLER_11_371
*518 FILLER_11_378
*519 FILLER_11_385
*520 FILLER_11_392
*521 FILLER_11_399
*522 FILLER_11_406
*523 FILLER_11_413
*524 FILLER_11_42
*525 FILLER_11_420
*526 FILLER_11_427
*527 FILLER_11_434
*528 FILLER_11_441
*529 FILLER_11_448
*530 FILLER_11_455
*531 FILLER_11_462
*532 FILLER_11_469
*533 FILLER_11_476
*534 FILLER_11_483
*535 FILLER_11_49
*536 FILLER_11_490
*537 FILLER_11_497
*538 FILLER_11_504
*539 FILLER_11_511
*540 FILLER_11_518
*541 FILLER_11_525
*542 FILLER_11_532
*543 FILLER_11_539
*544 FILLER_11_546
*545 FILLER_11_553
*546 FILLER_11_56
*547 FILLER_11_560
*548 FILLER_11_567
*549 FILLER_11_574
*550 FILLER_11_581
*551 FILLER_11_588
*552 FILLER_11_595
*553 FILLER_11_602
*554 FILLER_11_609
*555 FILLER_11_616
*556 FILLER_11_623
*557 FILLER_11_63
*558 FILLER_11_630
*559 FILLER_11_637
*560 FILLER_11_644
*561 FILLER_11_651
*562 FILLER_11_658
*563 FILLER_11_665
*564 FILLER_11_672
*565 FILLER_11_679
*566 FILLER_11_686
*567 FILLER_11_693
*568 FILLER_11_7
*569 FILLER_11_70
*570 FILLER_11_700
*571 FILLER_11_707
*572 FILLER_11_714
*573 FILLER_11_721
*574 FILLER_11_728
*575 FILLER_11_735
*576 FILLER_11_742
*577 FILLER_11_749
*578 FILLER_11_756
*579 FILLER_11_763
*580 FILLER_11_77
*581 FILLER_11_770
*582 FILLER_11_777
*583 FILLER_11_784
*584 FILLER_11_791
*585 FILLER_11_798
*586 FILLER_11_805
*587 FILLER_11_812
*588 FILLER_11_819
*589 FILLER_11_826
*590 FILLER_11_833
*591 FILLER_11_84
*592 FILLER_11_840
*593 FILLER_11_847
*594 FILLER_11_854
*595 FILLER_11_861
*596 FILLER_11_868
*597 FILLER_11_875
*598 FILLER_11_882
*599 FILLER_11_889
*600 FILLER_11_896
*601 FILLER_11_903
*602 FILLER_11_91
*603 FILLER_11_910
*604 FILLER_11_917
*605 FILLER_11_924
*606 FILLER_11_931
*607 FILLER_11_938
*608 FILLER_11_945
*609 FILLER_11_952
*610 FILLER_11_959
*611 FILLER_11_966
*612 FILLER_11_973
*613 FILLER_11_98
*614 FILLER_11_980
*615 FILLER_11_987
*616 FILLER_11_994
*617 FILLER_12_0
*618 FILLER_12_1001
*619 FILLER_12_1008
*620 FILLER_12_1015
*621 FILLER_12_1022
*622 FILLER_12_1029
*623 FILLER_12_1036
*624 FILLER_12_1043
*625 FILLER_12_105
*626 FILLER_12_1050
*627 FILLER_12_1057
*628 FILLER_12_1064
*629 FILLER_12_1071
*630 FILLER_12_1078
*631 FILLER_12_1085
*632 FILLER_12_1092
*633 FILLER_12_1099
*634 FILLER_12_112
*635 FILLER_12_119
*636 FILLER_12_126
*637 FILLER_12_133
*638 FILLER_12_14
*639 FILLER_12_140
*640 FILLER_12_147
*641 FILLER_12_154
*642 FILLER_12_161
*643 FILLER_12_168
*644 FILLER_12_175
*645 FILLER_12_182
*646 FILLER_12_189
*647 FILLER_12_196
*648 FILLER_12_203
*649 FILLER_12_21
*650 FILLER_12_210
*651 FILLER_12_217
*652 FILLER_12_224
*653 FILLER_12_231
*654 FILLER_12_238
*655 FILLER_12_245
*656 FILLER_12_252
*657 FILLER_12_259
*658 FILLER_12_266
*659 FILLER_12_273
*660 FILLER_12_28
*661 FILLER_12_280
*662 FILLER_12_287
*663 FILLER_12_294
*664 FILLER_12_301
*665 FILLER_12_308
*666 FILLER_12_315
*667 FILLER_12_322
*668 FILLER_12_329
*669 FILLER_12_336
*670 FILLER_12_343
*671 FILLER_12_35
*672 FILLER_12_350
*673 FILLER_12_357
*674 FILLER_12_364
*675 FILLER_12_371
*676 FILLER_12_378
*677 FILLER_12_385
*678 FILLER_12_392
*679 FILLER_12_399
*680 FILLER_12_406
*681 FILLER_12_413
*682 FILLER_12_42
*683 FILLER_12_420
*684 FILLER_12_427
*685 FILLER_12_434
*686 FILLER_12_441
*687 FILLER_12_448
*688 FILLER_12_455
*689 FILLER_12_462
*690 FILLER_12_469
*691 FILLER_12_476
*692 FILLER_12_483
*693 FILLER_12_49
*694 FILLER_12_490
*695 FILLER_12_497
*696 FILLER_12_504
*697 FILLER_12_511
*698 FILLER_12_518
*699 FILLER_12_525
*700 FILLER_12_532
*701 FILLER_12_539
*702 FILLER_12_546
*703 FILLER_12_553
*704 FILLER_12_56
*705 FILLER_12_560
*706 FILLER_12_567
*707 FILLER_12_574
*708 FILLER_12_581
*709 FILLER_12_588
*710 FILLER_12_595
*711 FILLER_12_602
*712 FILLER_12_609
*713 FILLER_12_616
*714 FILLER_12_623
*715 FILLER_12_63
*716 FILLER_12_630
*717 FILLER_12_637
*718 FILLER_12_644
*719 FILLER_12_651
*720 FILLER_12_658
*721 FILLER_12_665
*722 FILLER_12_672
*723 FILLER_12_679
*724 FILLER_12_686
*725 FILLER_12_693
*726 FILLER_12_7
*727 FILLER_12_70
*728 FILLER_12_700
*729 FILLER_12_707
*730 FILLER_12_714
*731 FILLER_12_721
*732 FILLER_12_728
*733 FILLER_12_735
*734 FILLER_12_742
*735 FILLER_12_749
*736 FILLER_12_756
*737 FILLER_12_763
*738 FILLER_12_77
*739 FILLER_12_770
*740 FILLER_12_777
*741 FILLER_12_784
*742 FILLER_12_791
*743 FILLER_12_798
*744 FILLER_12_805
*745 FILLER_12_812
*746 FILLER_12_819
*747 FILLER_12_826
*748 FILLER_12_833
*749 FILLER_12_84
*750 FILLER_12_840
*751 FILLER_12_847
*752 FILLER_12_854
*753 FILLER_12_861
*754 FILLER_12_868
*755 FILLER_12_875
*756 FILLER_12_882
*757 FILLER_12_889
*758 FILLER_12_896
*759 FILLER_12_903
*760 FILLER_12_91
*761 FILLER_12_910
*762 FILLER_12_917
*763 FILLER_12_924
*764 FILLER_12_931
*765 FILLER_12_938
*766 FILLER_12_945
*767 FILLER_12_952
*768 FILLER_12_959
*769 FILLER_12_966
*770 FILLER_12_973
*771 FILLER_12_98
*772 FILLER_12_980
*773 FILLER_12_987
*774 FILLER_12_994
*775 FILLER_13_0
*776 FILLER_13_1001
*777 FILLER_13_1008
*778 FILLER_13_1015
*779 FILLER_13_1022
*780 FILLER_13_1029
*781 FILLER_13_1036
*782 FILLER_13_1043
*783 FILLER_13_105
*784 FILLER_13_1050
*785 FILLER_13_1057
*786 FILLER_13_1064
*787 FILLER_13_1071
*788 FILLER_13_1078
*789 FILLER_13_1085
*790 FILLER_13_1092
*791 FILLER_13_1099
*792 FILLER_13_112
*793 FILLER_13_119
*794 FILLER_13_126
*795 FILLER_13_133
*796 FILLER_13_14
*797 FILLER_13_140
*798 FILLER_13_147
*799 FILLER_13_154
*800 FILLER_13_161
*801 FILLER_13_168
*802 FILLER_13_175
*803 FILLER_13_182
*804 FILLER_13_189
*805 FILLER_13_196
*806 FILLER_13_203
*807 FILLER_13_21
*808 FILLER_13_210
*809 FILLER_13_217
*810 FILLER_13_224
*811 FILLER_13_231
*812 FILLER_13_238
*813 FILLER_13_245
*814 FILLER_13_252
*815 FILLER_13_259
*816 FILLER_13_266
*817 FILLER_13_273
*818 FILLER_13_28
*819 FILLER_13_280
*820 FILLER_13_287
*821 FILLER_13_294
*822 FILLER_13_301
*823 FILLER_13_308
*824 FILLER_13_315
*825 FILLER_13_322
*826 FILLER_13_329
*827 FILLER_13_336
*828 FILLER_13_343
*829 FILLER_13_35
*830 FILLER_13_350
*831 FILLER_13_357
*832 FILLER_13_364
*833 FILLER_13_371
*834 FILLER_13_378
*835 FILLER_13_385
*836 FILLER_13_392
*837 FILLER_13_399
*838 FILLER_13_406
*839 FILLER_13_413
*840 FILLER_13_42
*841 FILLER_13_420
*842 FILLER_13_427
*843 FILLER_13_434
*844 FILLER_13_441
*845 FILLER_13_448
*846 FILLER_13_455
*847 FILLER_13_462
*848 FILLER_13_469
*849 FILLER_13_476
*850 FILLER_13_483
*851 FILLER_13_49
*852 FILLER_13_490
*853 FILLER_13_497
*854 FILLER_13_504
*855 FILLER_13_511
*856 FILLER_13_518
*857 FILLER_13_525
*858 FILLER_13_532
*859 FILLER_13_539
*860 FILLER_13_546
*861 FILLER_13_553
*862 FILLER_13_56
*863 FILLER_13_560
*864 FILLER_13_567
*865 FILLER_13_574
*866 FILLER_13_581
*867 FILLER_13_588
*868 FILLER_13_595
*869 FILLER_13_602
*870 FILLER_13_609
*871 FILLER_13_616
*872 FILLER_13_623
*873 FILLER_13_63
*874 FILLER_13_630
*875 FILLER_13_637
*876 FILLER_13_644
*877 FILLER_13_651
*878 FILLER_13_658
*879 FILLER_13_665
*880 FILLER_13_672
*881 FILLER_13_679
*882 FILLER_13_686
*883 FILLER_13_693
*884 FILLER_13_7
*885 FILLER_13_70
*886 FILLER_13_700
*887 FILLER_13_707
*888 FILLER_13_714
*889 FILLER_13_721
*890 FILLER_13_728
*891 FILLER_13_735
*892 FILLER_13_742
*893 FILLER_13_749
*894 FILLER_13_756
*895 FILLER_13_763
*896 FILLER_13_77
*897 FILLER_13_770
*898 FILLER_13_777
*899 FILLER_13_784
*900 FILLER_13_791
*901 FILLER_13_798
*902 FILLER_13_805
*903 FILLER_13_812
*904 FILLER_13_819
*905 FILLER_13_826
*906 FILLER_13_833
*907 FILLER_13_84
*908 FILLER_13_840
*909 FILLER_13_847
*910 FILLER_13_854
*911 FILLER_13_861
*912 FILLER_13_868
*913 FILLER_13_875
*914 FILLER_13_882
*915 FILLER_13_889
*916 FILLER_13_896
*917 FILLER_13_903
*918 FILLER_13_91
*919 FILLER_13_910
*920 FILLER_13_917
*921 FILLER_13_924
*922 FILLER_13_931
*923 FILLER_13_938
*924 FILLER_13_945
*925 FILLER_13_952
*926 FILLER_13_959
*927 FILLER_13_966
*928 FILLER_13_973
*929 FILLER_13_98
*930 FILLER_13_980
*931 FILLER_13_987
*932 FILLER_13_994
*933 FILLER_14_0
*934 FILLER_14_1001
*935 FILLER_14_1008
*936 FILLER_14_1015
*937 FILLER_14_1022
*938 FILLER_14_1029
*939 FILLER_14_1036
*940 FILLER_14_1043
*941 FILLER_14_105
*942 FILLER_14_1050
*943 FILLER_14_1057
*944 FILLER_14_1064
*945 FILLER_14_1071
*946 FILLER_14_1078
*947 FILLER_14_1085
*948 FILLER_14_1092
*949 FILLER_14_1099
*950 FILLER_14_112
*951 FILLER_14_119
*952 FILLER_14_126
*953 FILLER_14_133
*954 FILLER_14_14
*955 FILLER_14_140
*956 FILLER_14_147
*957 FILLER_14_154
*958 FILLER_14_161
*959 FILLER_14_168
*960 FILLER_14_175
*961 FILLER_14_182
*962 FILLER_14_189
*963 FILLER_14_196
*964 FILLER_14_203
*965 FILLER_14_21
*966 FILLER_14_210
*967 FILLER_14_217
*968 FILLER_14_224
*969 FILLER_14_231
*970 FILLER_14_238
*971 FILLER_14_245
*972 FILLER_14_252
*973 FILLER_14_259
*974 FILLER_14_266
*975 FILLER_14_273
*976 FILLER_14_28
*977 FILLER_14_280
*978 FILLER_14_287
*979 FILLER_14_294
*980 FILLER_14_301
*981 FILLER_14_308
*982 FILLER_14_315
*983 FILLER_14_322
*984 FILLER_14_329
*985 FILLER_14_336
*986 FILLER_14_343
*987 FILLER_14_35
*988 FILLER_14_350
*989 FILLER_14_357
*990 FILLER_14_364
*991 FILLER_14_371
*992 FILLER_14_378
*993 FILLER_14_385
*994 FILLER_14_392
*995 FILLER_14_399
*996 FILLER_14_406
*997 FILLER_14_413
*998 FILLER_14_42
*999 FILLER_14_420
*1000 FILLER_14_427
*1001 FILLER_14_434
*1002 FILLER_14_441
*1003 FILLER_14_448
*1004 FILLER_14_455
*1005 FILLER_14_462
*1006 FILLER_14_469
*1007 FILLER_14_476
*1008 FILLER_14_483
*1009 FILLER_14_49
*1010 FILLER_14_490
*1011 FILLER_14_497
*1012 FILLER_14_504
*1013 FILLER_14_511
*1014 FILLER_14_518
*1015 FILLER_14_525
*1016 FILLER_14_532
*1017 FILLER_14_539
*1018 FILLER_14_546
*1019 FILLER_14_553
*1020 FILLER_14_56
*1021 FILLER_14_560
*1022 FILLER_14_567
*1023 FILLER_14_574
*1024 FILLER_14_581
*1025 FILLER_14_588
*1026 FILLER_14_595
*1027 FILLER_14_602
*1028 FILLER_14_609
*1029 FILLER_14_616
*1030 FILLER_14_623
*1031 FILLER_14_63
*1032 FILLER_14_630
*1033 FILLER_14_637
*1034 FILLER_14_644
*1035 FILLER_14_651
*1036 FILLER_14_658
*1037 FILLER_14_665
*1038 FILLER_14_672
*1039 FILLER_14_679
*1040 FILLER_14_686
*1041 FILLER_14_693
*1042 FILLER_14_7
*1043 FILLER_14_70
*1044 FILLER_14_700
*1045 FILLER_14_707
*1046 FILLER_14_714
*1047 FILLER_14_721
*1048 FILLER_14_728
*1049 FILLER_14_735
*1050 FILLER_14_742
*1051 FILLER_14_749
*1052 FILLER_14_756
*1053 FILLER_14_763
*1054 FILLER_14_77
*1055 FILLER_14_770
*1056 FILLER_14_777
*1057 FILLER_14_784
*1058 FILLER_14_791
*1059 FILLER_14_798
*1060 FILLER_14_805
*1061 FILLER_14_812
*1062 FILLER_14_819
*1063 FILLER_14_826
*1064 FILLER_14_833
*1065 FILLER_14_84
*1066 FILLER_14_840
*1067 FILLER_14_847
*1068 FILLER_14_854
*1069 FILLER_14_861
*1070 FILLER_14_868
*1071 FILLER_14_875
*1072 FILLER_14_882
*1073 FILLER_14_889
*1074 FILLER_14_896
*1075 FILLER_14_903
*1076 FILLER_14_91
*1077 FILLER_14_910
*1078 FILLER_14_917
*1079 FILLER_14_924
*1080 FILLER_14_931
*1081 FILLER_14_938
*1082 FILLER_14_945
*1083 FILLER_14_952
*1084 FILLER_14_959
*1085 FILLER_14_966
*1086 FILLER_14_973
*1087 FILLER_14_98
*1088 FILLER_14_980
*1089 FILLER_14_987
*1090 FILLER_14_994
*1091 FILLER_15_0
*1092 FILLER_15_1001
*1093 FILLER_15_1008
*1094 FILLER_15_1015
*1095 FILLER_15_1022
*1096 FILLER_15_1029
*1097 FILLER_15_1036
*1098 FILLER_15_1043
*1099 FILLER_15_105
*1100 FILLER_15_1050
*1101 FILLER_15_1057
*1102 FILLER_15_1064
*1103 FILLER_15_1071
*1104 FILLER_15_1078
*1105 FILLER_15_1085
*1106 FILLER_15_1092
*1107 FILLER_15_1099
*1108 FILLER_15_112
*1109 FILLER_15_119
*1110 FILLER_15_126
*1111 FILLER_15_133
*1112 FILLER_15_14
*1113 FILLER_15_140
*1114 FILLER_15_147
*1115 FILLER_15_154
*1116 FILLER_15_161
*1117 FILLER_15_168
*1118 FILLER_15_175
*1119 FILLER_15_182
*1120 FILLER_15_189
*1121 FILLER_15_196
*1122 FILLER_15_203
*1123 FILLER_15_21
*1124 FILLER_15_210
*1125 FILLER_15_217
*1126 FILLER_15_224
*1127 FILLER_15_231
*1128 FILLER_15_238
*1129 FILLER_15_245
*1130 FILLER_15_252
*1131 FILLER_15_259
*1132 FILLER_15_266
*1133 FILLER_15_273
*1134 FILLER_15_28
*1135 FILLER_15_280
*1136 FILLER_15_287
*1137 FILLER_15_294
*1138 FILLER_15_301
*1139 FILLER_15_308
*1140 FILLER_15_315
*1141 FILLER_15_322
*1142 FILLER_15_329
*1143 FILLER_15_336
*1144 FILLER_15_343
*1145 FILLER_15_35
*1146 FILLER_15_350
*1147 FILLER_15_357
*1148 FILLER_15_364
*1149 FILLER_15_371
*1150 FILLER_15_378
*1151 FILLER_15_385
*1152 FILLER_15_392
*1153 FILLER_15_399
*1154 FILLER_15_406
*1155 FILLER_15_413
*1156 FILLER_15_42
*1157 FILLER_15_420
*1158 FILLER_15_427
*1159 FILLER_15_434
*1160 FILLER_15_441
*1161 FILLER_15_448
*1162 FILLER_15_455
*1163 FILLER_15_462
*1164 FILLER_15_469
*1165 FILLER_15_476
*1166 FILLER_15_483
*1167 FILLER_15_49
*1168 FILLER_15_490
*1169 FILLER_15_497
*1170 FILLER_15_504
*1171 FILLER_15_511
*1172 FILLER_15_518
*1173 FILLER_15_525
*1174 FILLER_15_532
*1175 FILLER_15_539
*1176 FILLER_15_546
*1177 FILLER_15_553
*1178 FILLER_15_56
*1179 FILLER_15_560
*1180 FILLER_15_567
*1181 FILLER_15_574
*1182 FILLER_15_581
*1183 FILLER_15_588
*1184 FILLER_15_595
*1185 FILLER_15_602
*1186 FILLER_15_609
*1187 FILLER_15_616
*1188 FILLER_15_623
*1189 FILLER_15_63
*1190 FILLER_15_630
*1191 FILLER_15_637
*1192 FILLER_15_644
*1193 FILLER_15_651
*1194 FILLER_15_658
*1195 FILLER_15_665
*1196 FILLER_15_672
*1197 FILLER_15_679
*1198 FILLER_15_686
*1199 FILLER_15_693
*1200 FILLER_15_7
*1201 FILLER_15_70
*1202 FILLER_15_700
*1203 FILLER_15_707
*1204 FILLER_15_714
*1205 FILLER_15_721
*1206 FILLER_15_728
*1207 FILLER_15_735
*1208 FILLER_15_742
*1209 FILLER_15_749
*1210 FILLER_15_756
*1211 FILLER_15_763
*1212 FILLER_15_77
*1213 FILLER_15_770
*1214 FILLER_15_777
*1215 FILLER_15_784
*1216 FILLER_15_791
*1217 FILLER_15_798
*1218 FILLER_15_805
*1219 FILLER_15_812
*1220 FILLER_15_819
*1221 FILLER_15_826
*1222 FILLER_15_833
*1223 FILLER_15_84
*1224 FILLER_15_840
*1225 FILLER_15_847
*1226 FILLER_15_854
*1227 FILLER_15_861
*1228 FILLER_15_868
*1229 FILLER_15_875
*1230 FILLER_15_882
*1231 FILLER_15_889
*1232 FILLER_15_896
*1233 FILLER_15_903
*1234 FILLER_15_91
*1235 FILLER_15_910
*1236 FILLER_15_917
*1237 FILLER_15_924
*1238 FILLER_15_931
*1239 FILLER_15_938
*1240 FILLER_15_945
*1241 FILLER_15_952
*1242 FILLER_15_959
*1243 FILLER_15_966
*1244 FILLER_15_973
*1245 FILLER_15_98
*1246 FILLER_15_980
*1247 FILLER_15_987
*1248 FILLER_15_994
*1249 FILLER_16_0
*1250 FILLER_16_1001
*1251 FILLER_16_1008
*1252 FILLER_16_1015
*1253 FILLER_16_1022
*1254 FILLER_16_1029
*1255 FILLER_16_1036
*1256 FILLER_16_1043
*1257 FILLER_16_105
*1258 FILLER_16_1050
*1259 FILLER_16_1057
*1260 FILLER_16_1064
*1261 FILLER_16_1071
*1262 FILLER_16_1078
*1263 FILLER_16_1085
*1264 FILLER_16_1092
*1265 FILLER_16_1099
*1266 FILLER_16_112
*1267 FILLER_16_119
*1268 FILLER_16_126
*1269 FILLER_16_133
*1270 FILLER_16_14
*1271 FILLER_16_140
*1272 FILLER_16_147
*1273 FILLER_16_154
*1274 FILLER_16_161
*1275 FILLER_16_168
*1276 FILLER_16_175
*1277 FILLER_16_182
*1278 FILLER_16_189
*1279 FILLER_16_196
*1280 FILLER_16_203
*1281 FILLER_16_21
*1282 FILLER_16_210
*1283 FILLER_16_217
*1284 FILLER_16_224
*1285 FILLER_16_231
*1286 FILLER_16_238
*1287 FILLER_16_245
*1288 FILLER_16_252
*1289 FILLER_16_259
*1290 FILLER_16_266
*1291 FILLER_16_273
*1292 FILLER_16_28
*1293 FILLER_16_280
*1294 FILLER_16_287
*1295 FILLER_16_294
*1296 FILLER_16_301
*1297 FILLER_16_308
*1298 FILLER_16_315
*1299 FILLER_16_322
*1300 FILLER_16_329
*1301 FILLER_16_336
*1302 FILLER_16_343
*1303 FILLER_16_35
*1304 FILLER_16_350
*1305 FILLER_16_357
*1306 FILLER_16_364
*1307 FILLER_16_371
*1308 FILLER_16_378
*1309 FILLER_16_385
*1310 FILLER_16_392
*1311 FILLER_16_399
*1312 FILLER_16_406
*1313 FILLER_16_413
*1314 FILLER_16_42
*1315 FILLER_16_420
*1316 FILLER_16_427
*1317 FILLER_16_434
*1318 FILLER_16_441
*1319 FILLER_16_448
*1320 FILLER_16_455
*1321 FILLER_16_462
*1322 FILLER_16_469
*1323 FILLER_16_476
*1324 FILLER_16_483
*1325 FILLER_16_49
*1326 FILLER_16_490
*1327 FILLER_16_497
*1328 FILLER_16_504
*1329 FILLER_16_511
*1330 FILLER_16_518
*1331 FILLER_16_525
*1332 FILLER_16_532
*1333 FILLER_16_539
*1334 FILLER_16_546
*1335 FILLER_16_553
*1336 FILLER_16_56
*1337 FILLER_16_560
*1338 FILLER_16_567
*1339 FILLER_16_574
*1340 FILLER_16_581
*1341 FILLER_16_588
*1342 FILLER_16_595
*1343 FILLER_16_602
*1344 FILLER_16_609
*1345 FILLER_16_616
*1346 FILLER_16_623
*1347 FILLER_16_63
*1348 FILLER_16_630
*1349 FILLER_16_637
*1350 FILLER_16_644
*1351 FILLER_16_651
*1352 FILLER_16_658
*1353 FILLER_16_665
*1354 FILLER_16_672
*1355 FILLER_16_679
*1356 FILLER_16_686
*1357 FILLER_16_693
*1358 FILLER_16_7
*1359 FILLER_16_70
*1360 FILLER_16_700
*1361 FILLER_16_707
*1362 FILLER_16_714
*1363 FILLER_16_721
*1364 FILLER_16_728
*1365 FILLER_16_735
*1366 FILLER_16_742
*1367 FILLER_16_749
*1368 FILLER_16_756
*1369 FILLER_16_763
*1370 FILLER_16_77
*1371 FILLER_16_770
*1372 FILLER_16_777
*1373 FILLER_16_784
*1374 FILLER_16_791
*1375 FILLER_16_798
*1376 FILLER_16_805
*1377 FILLER_16_812
*1378 FILLER_16_819
*1379 FILLER_16_826
*1380 FILLER_16_833
*1381 FILLER_16_84
*1382 FILLER_16_840
*1383 FILLER_16_847
*1384 FILLER_16_854
*1385 FILLER_16_861
*1386 FILLER_16_868
*1387 FILLER_16_875
*1388 FILLER_16_882
*1389 FILLER_16_889
*1390 FILLER_16_896
*1391 FILLER_16_903
*1392 FILLER_16_91
*1393 FILLER_16_910
*1394 FILLER_16_917
*1395 FILLER_16_924
*1396 FILLER_16_931
*1397 FILLER_16_938
*1398 FILLER_16_945
*1399 FILLER_16_952
*1400 FILLER_16_959
*1401 FILLER_16_966
*1402 FILLER_16_973
*1403 FILLER_16_98
*1404 FILLER_16_980
*1405 FILLER_16_987
*1406 FILLER_16_994
*1407 FILLER_17_0
*1408 FILLER_17_1001
*1409 FILLER_17_1008
*1410 FILLER_17_1015
*1411 FILLER_17_1022
*1412 FILLER_17_1029
*1413 FILLER_17_1036
*1414 FILLER_17_1043
*1415 FILLER_17_105
*1416 FILLER_17_1050
*1417 FILLER_17_1057
*1418 FILLER_17_1064
*1419 FILLER_17_1071
*1420 FILLER_17_1078
*1421 FILLER_17_1085
*1422 FILLER_17_1092
*1423 FILLER_17_1099
*1424 FILLER_17_112
*1425 FILLER_17_119
*1426 FILLER_17_126
*1427 FILLER_17_133
*1428 FILLER_17_14
*1429 FILLER_17_140
*1430 FILLER_17_147
*1431 FILLER_17_154
*1432 FILLER_17_161
*1433 FILLER_17_168
*1434 FILLER_17_175
*1435 FILLER_17_182
*1436 FILLER_17_189
*1437 FILLER_17_196
*1438 FILLER_17_203
*1439 FILLER_17_21
*1440 FILLER_17_210
*1441 FILLER_17_217
*1442 FILLER_17_224
*1443 FILLER_17_231
*1444 FILLER_17_238
*1445 FILLER_17_245
*1446 FILLER_17_252
*1447 FILLER_17_259
*1448 FILLER_17_266
*1449 FILLER_17_273
*1450 FILLER_17_28
*1451 FILLER_17_280
*1452 FILLER_17_287
*1453 FILLER_17_294
*1454 FILLER_17_301
*1455 FILLER_17_308
*1456 FILLER_17_315
*1457 FILLER_17_322
*1458 FILLER_17_329
*1459 FILLER_17_336
*1460 FILLER_17_343
*1461 FILLER_17_35
*1462 FILLER_17_350
*1463 FILLER_17_357
*1464 FILLER_17_364
*1465 FILLER_17_371
*1466 FILLER_17_378
*1467 FILLER_17_385
*1468 FILLER_17_392
*1469 FILLER_17_399
*1470 FILLER_17_406
*1471 FILLER_17_413
*1472 FILLER_17_42
*1473 FILLER_17_420
*1474 FILLER_17_427
*1475 FILLER_17_434
*1476 FILLER_17_441
*1477 FILLER_17_448
*1478 FILLER_17_455
*1479 FILLER_17_462
*1480 FILLER_17_469
*1481 FILLER_17_476
*1482 FILLER_17_483
*1483 FILLER_17_49
*1484 FILLER_17_490
*1485 FILLER_17_497
*1486 FILLER_17_504
*1487 FILLER_17_511
*1488 FILLER_17_518
*1489 FILLER_17_525
*1490 FILLER_17_532
*1491 FILLER_17_539
*1492 FILLER_17_546
*1493 FILLER_17_553
*1494 FILLER_17_56
*1495 FILLER_17_560
*1496 FILLER_17_567
*1497 FILLER_17_574
*1498 FILLER_17_581
*1499 FILLER_17_588
*1500 FILLER_17_595
*1501 FILLER_17_602
*1502 FILLER_17_609
*1503 FILLER_17_616
*1504 FILLER_17_623
*1505 FILLER_17_63
*1506 FILLER_17_630
*1507 FILLER_17_637
*1508 FILLER_17_644
*1509 FILLER_17_651
*1510 FILLER_17_658
*1511 FILLER_17_665
*1512 FILLER_17_672
*1513 FILLER_17_679
*1514 FILLER_17_686
*1515 FILLER_17_693
*1516 FILLER_17_7
*1517 FILLER_17_70
*1518 FILLER_17_700
*1519 FILLER_17_707
*1520 FILLER_17_714
*1521 FILLER_17_721
*1522 FILLER_17_728
*1523 FILLER_17_735
*1524 FILLER_17_742
*1525 FILLER_17_749
*1526 FILLER_17_756
*1527 FILLER_17_763
*1528 FILLER_17_77
*1529 FILLER_17_770
*1530 FILLER_17_777
*1531 FILLER_17_784
*1532 FILLER_17_791
*1533 FILLER_17_798
*1534 FILLER_17_805
*1535 FILLER_17_812
*1536 FILLER_17_819
*1537 FILLER_17_826
*1538 FILLER_17_833
*1539 FILLER_17_84
*1540 FILLER_17_840
*1541 FILLER_17_847
*1542 FILLER_17_854
*1543 FILLER_17_861
*1544 FILLER_17_868
*1545 FILLER_17_875
*1546 FILLER_17_882
*1547 FILLER_17_889
*1548 FILLER_17_896
*1549 FILLER_17_903
*1550 FILLER_17_91
*1551 FILLER_17_910
*1552 FILLER_17_917
*1553 FILLER_17_924
*1554 FILLER_17_931
*1555 FILLER_17_938
*1556 FILLER_17_945
*1557 FILLER_17_952
*1558 FILLER_17_959
*1559 FILLER_17_966
*1560 FILLER_17_973
*1561 FILLER_17_98
*1562 FILLER_17_980
*1563 FILLER_17_987
*1564 FILLER_17_994
*1565 FILLER_18_0
*1566 FILLER_18_1001
*1567 FILLER_18_1008
*1568 FILLER_18_1015
*1569 FILLER_18_1022
*1570 FILLER_18_1029
*1571 FILLER_18_1036
*1572 FILLER_18_1043
*1573 FILLER_18_105
*1574 FILLER_18_1050
*1575 FILLER_18_1057
*1576 FILLER_18_1064
*1577 FILLER_18_1071
*1578 FILLER_18_1078
*1579 FILLER_18_1085
*1580 FILLER_18_1092
*1581 FILLER_18_1099
*1582 FILLER_18_112
*1583 FILLER_18_119
*1584 FILLER_18_126
*1585 FILLER_18_133
*1586 FILLER_18_14
*1587 FILLER_18_140
*1588 FILLER_18_147
*1589 FILLER_18_154
*1590 FILLER_18_161
*1591 FILLER_18_168
*1592 FILLER_18_175
*1593 FILLER_18_182
*1594 FILLER_18_189
*1595 FILLER_18_196
*1596 FILLER_18_203
*1597 FILLER_18_21
*1598 FILLER_18_210
*1599 FILLER_18_217
*1600 FILLER_18_224
*1601 FILLER_18_231
*1602 FILLER_18_238
*1603 FILLER_18_245
*1604 FILLER_18_252
*1605 FILLER_18_259
*1606 FILLER_18_266
*1607 FILLER_18_273
*1608 FILLER_18_28
*1609 FILLER_18_280
*1610 FILLER_18_287
*1611 FILLER_18_294
*1612 FILLER_18_301
*1613 FILLER_18_308
*1614 FILLER_18_315
*1615 FILLER_18_322
*1616 FILLER_18_329
*1617 FILLER_18_336
*1618 FILLER_18_343
*1619 FILLER_18_35
*1620 FILLER_18_350
*1621 FILLER_18_357
*1622 FILLER_18_364
*1623 FILLER_18_371
*1624 FILLER_18_378
*1625 FILLER_18_385
*1626 FILLER_18_392
*1627 FILLER_18_399
*1628 FILLER_18_406
*1629 FILLER_18_413
*1630 FILLER_18_42
*1631 FILLER_18_420
*1632 FILLER_18_427
*1633 FILLER_18_434
*1634 FILLER_18_441
*1635 FILLER_18_448
*1636 FILLER_18_455
*1637 FILLER_18_462
*1638 FILLER_18_469
*1639 FILLER_18_476
*1640 FILLER_18_483
*1641 FILLER_18_49
*1642 FILLER_18_490
*1643 FILLER_18_497
*1644 FILLER_18_504
*1645 FILLER_18_511
*1646 FILLER_18_518
*1647 FILLER_18_525
*1648 FILLER_18_532
*1649 FILLER_18_539
*1650 FILLER_18_546
*1651 FILLER_18_553
*1652 FILLER_18_56
*1653 FILLER_18_560
*1654 FILLER_18_567
*1655 FILLER_18_574
*1656 FILLER_18_581
*1657 FILLER_18_588
*1658 FILLER_18_595
*1659 FILLER_18_602
*1660 FILLER_18_609
*1661 FILLER_18_616
*1662 FILLER_18_623
*1663 FILLER_18_63
*1664 FILLER_18_630
*1665 FILLER_18_637
*1666 FILLER_18_644
*1667 FILLER_18_651
*1668 FILLER_18_658
*1669 FILLER_18_665
*1670 FILLER_18_672
*1671 FILLER_18_679
*1672 FILLER_18_686
*1673 FILLER_18_693
*1674 FILLER_18_7
*1675 FILLER_18_70
*1676 FILLER_18_700
*1677 FILLER_18_707
*1678 FILLER_18_714
*1679 FILLER_18_721
*1680 FILLER_18_728
*1681 FILLER_18_735
*1682 FILLER_18_742
*1683 FILLER_18_749
*1684 FILLER_18_756
*1685 FILLER_18_763
*1686 FILLER_18_77
*1687 FILLER_18_770
*1688 FILLER_18_777
*1689 FILLER_18_784
*1690 FILLER_18_791
*1691 FILLER_18_798
*1692 FILLER_18_805
*1693 FILLER_18_812
*1694 FILLER_18_819
*1695 FILLER_18_826
*1696 FILLER_18_833
*1697 FILLER_18_84
*1698 FILLER_18_840
*1699 FILLER_18_847
*1700 FILLER_18_854
*1701 FILLER_18_861
*1702 FILLER_18_868
*1703 FILLER_18_875
*1704 FILLER_18_882
*1705 FILLER_18_889
*1706 FILLER_18_896
*1707 FILLER_18_903
*1708 FILLER_18_91
*1709 FILLER_18_910
*1710 FILLER_18_917
*1711 FILLER_18_924
*1712 FILLER_18_931
*1713 FILLER_18_938
*1714 FILLER_18_945
*1715 FILLER_18_952
*1716 FILLER_18_959
*1717 FILLER_18_966
*1718 FILLER_18_973
*1719 FILLER_18_98
*1720 FILLER_18_980
*1721 FILLER_18_987
*1722 FILLER_18_994
*1723 FILLER_19_0
*1724 FILLER_19_1001
*1725 FILLER_19_1008
*1726 FILLER_19_1015
*1727 FILLER_19_1022
*1728 FILLER_19_1029
*1729 FILLER_19_1036
*1730 FILLER_19_1043
*1731 FILLER_19_105
*1732 FILLER_19_1050
*1733 FILLER_19_1057
*1734 FILLER_19_1064
*1735 FILLER_19_1071
*1736 FILLER_19_1078
*1737 FILLER_19_1085
*1738 FILLER_19_1092
*1739 FILLER_19_1099
*1740 FILLER_19_112
*1741 FILLER_19_119
*1742 FILLER_19_126
*1743 FILLER_19_133
*1744 FILLER_19_14
*1745 FILLER_19_140
*1746 FILLER_19_147
*1747 FILLER_19_154
*1748 FILLER_19_161
*1749 FILLER_19_168
*1750 FILLER_19_175
*1751 FILLER_19_182
*1752 FILLER_19_189
*1753 FILLER_19_196
*1754 FILLER_19_203
*1755 FILLER_19_21
*1756 FILLER_19_210
*1757 FILLER_19_217
*1758 FILLER_19_224
*1759 FILLER_19_231
*1760 FILLER_19_238
*1761 FILLER_19_245
*1762 FILLER_19_252
*1763 FILLER_19_259
*1764 FILLER_19_266
*1765 FILLER_19_273
*1766 FILLER_19_28
*1767 FILLER_19_280
*1768 FILLER_19_287
*1769 FILLER_19_294
*1770 FILLER_19_301
*1771 FILLER_19_308
*1772 FILLER_19_315
*1773 FILLER_19_322
*1774 FILLER_19_329
*1775 FILLER_19_336
*1776 FILLER_19_343
*1777 FILLER_19_35
*1778 FILLER_19_350
*1779 FILLER_19_357
*1780 FILLER_19_364
*1781 FILLER_19_371
*1782 FILLER_19_378
*1783 FILLER_19_385
*1784 FILLER_19_392
*1785 FILLER_19_399
*1786 FILLER_19_406
*1787 FILLER_19_413
*1788 FILLER_19_42
*1789 FILLER_19_420
*1790 FILLER_19_427
*1791 FILLER_19_434
*1792 FILLER_19_441
*1793 FILLER_19_448
*1794 FILLER_19_455
*1795 FILLER_19_462
*1796 FILLER_19_469
*1797 FILLER_19_476
*1798 FILLER_19_483
*1799 FILLER_19_49
*1800 FILLER_19_490
*1801 FILLER_19_497
*1802 FILLER_19_504
*1803 FILLER_19_511
*1804 FILLER_19_518
*1805 FILLER_19_525
*1806 FILLER_19_532
*1807 FILLER_19_539
*1808 FILLER_19_546
*1809 FILLER_19_553
*1810 FILLER_19_56
*1811 FILLER_19_560
*1812 FILLER_19_567
*1813 FILLER_19_574
*1814 FILLER_19_581
*1815 FILLER_19_588
*1816 FILLER_19_595
*1817 FILLER_19_602
*1818 FILLER_19_609
*1819 FILLER_19_616
*1820 FILLER_19_623
*1821 FILLER_19_63
*1822 FILLER_19_630
*1823 FILLER_19_637
*1824 FILLER_19_644
*1825 FILLER_19_651
*1826 FILLER_19_658
*1827 FILLER_19_665
*1828 FILLER_19_672
*1829 FILLER_19_679
*1830 FILLER_19_686
*1831 FILLER_19_693
*1832 FILLER_19_7
*1833 FILLER_19_70
*1834 FILLER_19_700
*1835 FILLER_19_707
*1836 FILLER_19_714
*1837 FILLER_19_721
*1838 FILLER_19_728
*1839 FILLER_19_735
*1840 FILLER_19_742
*1841 FILLER_19_749
*1842 FILLER_19_756
*1843 FILLER_19_763
*1844 FILLER_19_77
*1845 FILLER_19_770
*1846 FILLER_19_777
*1847 FILLER_19_784
*1848 FILLER_19_791
*1849 FILLER_19_798
*1850 FILLER_19_805
*1851 FILLER_19_812
*1852 FILLER_19_819
*1853 FILLER_19_826
*1854 FILLER_19_833
*1855 FILLER_19_84
*1856 FILLER_19_840
*1857 FILLER_19_847
*1858 FILLER_19_854
*1859 FILLER_19_861
*1860 FILLER_19_868
*1861 FILLER_19_875
*1862 FILLER_19_882
*1863 FILLER_19_889
*1864 FILLER_19_896
*1865 FILLER_19_903
*1866 FILLER_19_91
*1867 FILLER_19_910
*1868 FILLER_19_917
*1869 FILLER_19_924
*1870 FILLER_19_931
*1871 FILLER_19_938
*1872 FILLER_19_945
*1873 FILLER_19_952
*1874 FILLER_19_959
*1875 FILLER_19_966
*1876 FILLER_19_973
*1877 FILLER_19_98
*1878 FILLER_19_980
*1879 FILLER_19_987
*1880 FILLER_19_994
*1881 FILLER_1_0
*1882 FILLER_1_1001
*1883 FILLER_1_1008
*1884 FILLER_1_1015
*1885 FILLER_1_1022
*1886 FILLER_1_1029
*1887 FILLER_1_1036
*1888 FILLER_1_1043
*1889 FILLER_1_105
*1890 FILLER_1_1050
*1891 FILLER_1_1057
*1892 FILLER_1_1064
*1893 FILLER_1_1071
*1894 FILLER_1_1078
*1895 FILLER_1_1085
*1896 FILLER_1_1092
*1897 FILLER_1_1099
*1898 FILLER_1_112
*1899 FILLER_1_119
*1900 FILLER_1_126
*1901 FILLER_1_133
*1902 FILLER_1_14
*1903 FILLER_1_140
*1904 FILLER_1_147
*1905 FILLER_1_154
*1906 FILLER_1_161
*1907 FILLER_1_168
*1908 FILLER_1_175
*1909 FILLER_1_182
*1910 FILLER_1_189
*1911 FILLER_1_196
*1912 FILLER_1_203
*1913 FILLER_1_21
*1914 FILLER_1_210
*1915 FILLER_1_217
*1916 FILLER_1_224
*1917 FILLER_1_231
*1918 FILLER_1_238
*1919 FILLER_1_245
*1920 FILLER_1_252
*1921 FILLER_1_259
*1922 FILLER_1_266
*1923 FILLER_1_273
*1924 FILLER_1_28
*1925 FILLER_1_280
*1926 FILLER_1_287
*1927 FILLER_1_294
*1928 FILLER_1_301
*1929 FILLER_1_308
*1930 FILLER_1_315
*1931 FILLER_1_322
*1932 FILLER_1_329
*1933 FILLER_1_336
*1934 FILLER_1_343
*1935 FILLER_1_35
*1936 FILLER_1_350
*1937 FILLER_1_357
*1938 FILLER_1_364
*1939 FILLER_1_371
*1940 FILLER_1_378
*1941 FILLER_1_385
*1942 FILLER_1_392
*1943 FILLER_1_399
*1944 FILLER_1_406
*1945 FILLER_1_413
*1946 FILLER_1_42
*1947 FILLER_1_420
*1948 FILLER_1_427
*1949 FILLER_1_434
*1950 FILLER_1_441
*1951 FILLER_1_448
*1952 FILLER_1_455
*1953 FILLER_1_462
*1954 FILLER_1_469
*1955 FILLER_1_476
*1956 FILLER_1_483
*1957 FILLER_1_49
*1958 FILLER_1_490
*1959 FILLER_1_497
*1960 FILLER_1_504
*1961 FILLER_1_511
*1962 FILLER_1_518
*1963 FILLER_1_525
*1964 FILLER_1_532
*1965 FILLER_1_539
*1966 FILLER_1_546
*1967 FILLER_1_553
*1968 FILLER_1_56
*1969 FILLER_1_560
*1970 FILLER_1_567
*1971 FILLER_1_574
*1972 FILLER_1_581
*1973 FILLER_1_588
*1974 FILLER_1_595
*1975 FILLER_1_602
*1976 FILLER_1_609
*1977 FILLER_1_616
*1978 FILLER_1_623
*1979 FILLER_1_63
*1980 FILLER_1_630
*1981 FILLER_1_637
*1982 FILLER_1_644
*1983 FILLER_1_651
*1984 FILLER_1_658
*1985 FILLER_1_665
*1986 FILLER_1_672
*1987 FILLER_1_679
*1988 FILLER_1_686
*1989 FILLER_1_693
*1990 FILLER_1_7
*1991 FILLER_1_70
*1992 FILLER_1_700
*1993 FILLER_1_707
*1994 FILLER_1_714
*1995 FILLER_1_721
*1996 FILLER_1_728
*1997 FILLER_1_735
*1998 FILLER_1_742
*1999 FILLER_1_749
*2000 FILLER_1_756
*2001 FILLER_1_763
*2002 FILLER_1_77
*2003 FILLER_1_770
*2004 FILLER_1_777
*2005 FILLER_1_784
*2006 FILLER_1_791
*2007 FILLER_1_798
*2008 FILLER_1_805
*2009 FILLER_1_812
*2010 FILLER_1_819
*2011 FILLER_1_826
*2012 FILLER_1_833
*2013 FILLER_1_84
*2014 FILLER_1_840
*2015 FILLER_1_847
*2016 FILLER_1_854
*2017 FILLER_1_861
*2018 FILLER_1_868
*2019 FILLER_1_875
*2020 FILLER_1_882
*2021 FILLER_1_889
*2022 FILLER_1_896
*2023 FILLER_1_903
*2024 FILLER_1_91
*2025 FILLER_1_910
*2026 FILLER_1_917
*2027 FILLER_1_924
*2028 FILLER_1_931
*2029 FILLER_1_938
*2030 FILLER_1_945
*2031 FILLER_1_952
*2032 FILLER_1_959
*2033 FILLER_1_966
*2034 FILLER_1_973
*2035 FILLER_1_98
*2036 FILLER_1_980
*2037 FILLER_1_987
*2038 FILLER_1_994
*2039 FILLER_20_0
*2040 FILLER_20_1001
*2041 FILLER_20_1008
*2042 FILLER_20_1015
*2043 FILLER_20_1022
*2044 FILLER_20_1029
*2045 FILLER_20_1036
*2046 FILLER_20_1043
*2047 FILLER_20_105
*2048 FILLER_20_1050
*2049 FILLER_20_1057
*2050 FILLER_20_1064
*2051 FILLER_20_1071
*2052 FILLER_20_1078
*2053 FILLER_20_1085
*2054 FILLER_20_1092
*2055 FILLER_20_1099
*2056 FILLER_20_112
*2057 FILLER_20_119
*2058 FILLER_20_126
*2059 FILLER_20_133
*2060 FILLER_20_14
*2061 FILLER_20_140
*2062 FILLER_20_147
*2063 FILLER_20_154
*2064 FILLER_20_161
*2065 FILLER_20_168
*2066 FILLER_20_175
*2067 FILLER_20_182
*2068 FILLER_20_189
*2069 FILLER_20_196
*2070 FILLER_20_203
*2071 FILLER_20_21
*2072 FILLER_20_210
*2073 FILLER_20_217
*2074 FILLER_20_224
*2075 FILLER_20_231
*2076 FILLER_20_238
*2077 FILLER_20_245
*2078 FILLER_20_252
*2079 FILLER_20_259
*2080 FILLER_20_266
*2081 FILLER_20_273
*2082 FILLER_20_28
*2083 FILLER_20_280
*2084 FILLER_20_287
*2085 FILLER_20_294
*2086 FILLER_20_301
*2087 FILLER_20_308
*2088 FILLER_20_315
*2089 FILLER_20_322
*2090 FILLER_20_329
*2091 FILLER_20_336
*2092 FILLER_20_343
*2093 FILLER_20_35
*2094 FILLER_20_350
*2095 FILLER_20_357
*2096 FILLER_20_364
*2097 FILLER_20_371
*2098 FILLER_20_378
*2099 FILLER_20_385
*2100 FILLER_20_392
*2101 FILLER_20_399
*2102 FILLER_20_406
*2103 FILLER_20_413
*2104 FILLER_20_42
*2105 FILLER_20_420
*2106 FILLER_20_427
*2107 FILLER_20_434
*2108 FILLER_20_441
*2109 FILLER_20_448
*2110 FILLER_20_455
*2111 FILLER_20_462
*2112 FILLER_20_469
*2113 FILLER_20_476
*2114 FILLER_20_483
*2115 FILLER_20_49
*2116 FILLER_20_490
*2117 FILLER_20_497
*2118 FILLER_20_504
*2119 FILLER_20_511
*2120 FILLER_20_518
*2121 FILLER_20_525
*2122 FILLER_20_532
*2123 FILLER_20_539
*2124 FILLER_20_546
*2125 FILLER_20_553
*2126 FILLER_20_56
*2127 FILLER_20_560
*2128 FILLER_20_567
*2129 FILLER_20_574
*2130 FILLER_20_581
*2131 FILLER_20_588
*2132 FILLER_20_595
*2133 FILLER_20_602
*2134 FILLER_20_609
*2135 FILLER_20_616
*2136 FILLER_20_623
*2137 FILLER_20_63
*2138 FILLER_20_630
*2139 FILLER_20_637
*2140 FILLER_20_644
*2141 FILLER_20_651
*2142 FILLER_20_658
*2143 FILLER_20_665
*2144 FILLER_20_672
*2145 FILLER_20_679
*2146 FILLER_20_686
*2147 FILLER_20_693
*2148 FILLER_20_7
*2149 FILLER_20_70
*2150 FILLER_20_700
*2151 FILLER_20_707
*2152 FILLER_20_714
*2153 FILLER_20_721
*2154 FILLER_20_728
*2155 FILLER_20_735
*2156 FILLER_20_742
*2157 FILLER_20_749
*2158 FILLER_20_756
*2159 FILLER_20_763
*2160 FILLER_20_77
*2161 FILLER_20_770
*2162 FILLER_20_777
*2163 FILLER_20_784
*2164 FILLER_20_791
*2165 FILLER_20_798
*2166 FILLER_20_805
*2167 FILLER_20_812
*2168 FILLER_20_819
*2169 FILLER_20_826
*2170 FILLER_20_833
*2171 FILLER_20_84
*2172 FILLER_20_840
*2173 FILLER_20_847
*2174 FILLER_20_854
*2175 FILLER_20_861
*2176 FILLER_20_868
*2177 FILLER_20_875
*2178 FILLER_20_882
*2179 FILLER_20_889
*2180 FILLER_20_896
*2181 FILLER_20_903
*2182 FILLER_20_91
*2183 FILLER_20_910
*2184 FILLER_20_917
*2185 FILLER_20_924
*2186 FILLER_20_931
*2187 FILLER_20_938
*2188 FILLER_20_945
*2189 FILLER_20_952
*2190 FILLER_20_959
*2191 FILLER_20_966
*2192 FILLER_20_973
*2193 FILLER_20_98
*2194 FILLER_20_980
*2195 FILLER_20_987
*2196 FILLER_20_994
*2197 FILLER_21_0
*2198 FILLER_21_1001
*2199 FILLER_21_1008
*2200 FILLER_21_1015
*2201 FILLER_21_1022
*2202 FILLER_21_1029
*2203 FILLER_21_1036
*2204 FILLER_21_1043
*2205 FILLER_21_105
*2206 FILLER_21_1050
*2207 FILLER_21_1057
*2208 FILLER_21_1064
*2209 FILLER_21_1071
*2210 FILLER_21_1078
*2211 FILLER_21_1085
*2212 FILLER_21_1092
*2213 FILLER_21_1099
*2214 FILLER_21_112
*2215 FILLER_21_119
*2216 FILLER_21_126
*2217 FILLER_21_133
*2218 FILLER_21_14
*2219 FILLER_21_140
*2220 FILLER_21_147
*2221 FILLER_21_154
*2222 FILLER_21_161
*2223 FILLER_21_168
*2224 FILLER_21_175
*2225 FILLER_21_182
*2226 FILLER_21_189
*2227 FILLER_21_196
*2228 FILLER_21_203
*2229 FILLER_21_21
*2230 FILLER_21_210
*2231 FILLER_21_217
*2232 FILLER_21_224
*2233 FILLER_21_231
*2234 FILLER_21_238
*2235 FILLER_21_245
*2236 FILLER_21_252
*2237 FILLER_21_259
*2238 FILLER_21_266
*2239 FILLER_21_273
*2240 FILLER_21_28
*2241 FILLER_21_280
*2242 FILLER_21_287
*2243 FILLER_21_294
*2244 FILLER_21_301
*2245 FILLER_21_308
*2246 FILLER_21_315
*2247 FILLER_21_322
*2248 FILLER_21_329
*2249 FILLER_21_336
*2250 FILLER_21_343
*2251 FILLER_21_35
*2252 FILLER_21_350
*2253 FILLER_21_357
*2254 FILLER_21_364
*2255 FILLER_21_371
*2256 FILLER_21_378
*2257 FILLER_21_385
*2258 FILLER_21_392
*2259 FILLER_21_399
*2260 FILLER_21_406
*2261 FILLER_21_413
*2262 FILLER_21_42
*2263 FILLER_21_420
*2264 FILLER_21_427
*2265 FILLER_21_434
*2266 FILLER_21_441
*2267 FILLER_21_448
*2268 FILLER_21_455
*2269 FILLER_21_462
*2270 FILLER_21_469
*2271 FILLER_21_476
*2272 FILLER_21_483
*2273 FILLER_21_49
*2274 FILLER_21_490
*2275 FILLER_21_497
*2276 FILLER_21_504
*2277 FILLER_21_511
*2278 FILLER_21_518
*2279 FILLER_21_525
*2280 FILLER_21_532
*2281 FILLER_21_539
*2282 FILLER_21_546
*2283 FILLER_21_553
*2284 FILLER_21_56
*2285 FILLER_21_560
*2286 FILLER_21_567
*2287 FILLER_21_574
*2288 FILLER_21_581
*2289 FILLER_21_588
*2290 FILLER_21_595
*2291 FILLER_21_602
*2292 FILLER_21_609
*2293 FILLER_21_616
*2294 FILLER_21_623
*2295 FILLER_21_63
*2296 FILLER_21_630
*2297 FILLER_21_637
*2298 FILLER_21_644
*2299 FILLER_21_651
*2300 FILLER_21_658
*2301 FILLER_21_665
*2302 FILLER_21_672
*2303 FILLER_21_679
*2304 FILLER_21_686
*2305 FILLER_21_693
*2306 FILLER_21_7
*2307 FILLER_21_70
*2308 FILLER_21_700
*2309 FILLER_21_707
*2310 FILLER_21_714
*2311 FILLER_21_721
*2312 FILLER_21_728
*2313 FILLER_21_735
*2314 FILLER_21_742
*2315 FILLER_21_749
*2316 FILLER_21_756
*2317 FILLER_21_763
*2318 FILLER_21_77
*2319 FILLER_21_770
*2320 FILLER_21_777
*2321 FILLER_21_784
*2322 FILLER_21_791
*2323 FILLER_21_798
*2324 FILLER_21_805
*2325 FILLER_21_812
*2326 FILLER_21_819
*2327 FILLER_21_826
*2328 FILLER_21_833
*2329 FILLER_21_84
*2330 FILLER_21_840
*2331 FILLER_21_847
*2332 FILLER_21_854
*2333 FILLER_21_861
*2334 FILLER_21_868
*2335 FILLER_21_875
*2336 FILLER_21_882
*2337 FILLER_21_889
*2338 FILLER_21_896
*2339 FILLER_21_903
*2340 FILLER_21_91
*2341 FILLER_21_910
*2342 FILLER_21_917
*2343 FILLER_21_924
*2344 FILLER_21_931
*2345 FILLER_21_938
*2346 FILLER_21_945
*2347 FILLER_21_952
*2348 FILLER_21_959
*2349 FILLER_21_966
*2350 FILLER_21_973
*2351 FILLER_21_98
*2352 FILLER_21_980
*2353 FILLER_21_987
*2354 FILLER_21_994
*2355 FILLER_22_0
*2356 FILLER_22_1001
*2357 FILLER_22_1008
*2358 FILLER_22_1015
*2359 FILLER_22_1022
*2360 FILLER_22_1029
*2361 FILLER_22_1036
*2362 FILLER_22_1043
*2363 FILLER_22_105
*2364 FILLER_22_1050
*2365 FILLER_22_1057
*2366 FILLER_22_1064
*2367 FILLER_22_1071
*2368 FILLER_22_1078
*2369 FILLER_22_1085
*2370 FILLER_22_1092
*2371 FILLER_22_1096
*2372 FILLER_22_112
*2373 FILLER_22_119
*2374 FILLER_22_126
*2375 FILLER_22_133
*2376 FILLER_22_14
*2377 FILLER_22_140
*2378 FILLER_22_147
*2379 FILLER_22_154
*2380 FILLER_22_161
*2381 FILLER_22_168
*2382 FILLER_22_175
*2383 FILLER_22_182
*2384 FILLER_22_189
*2385 FILLER_22_196
*2386 FILLER_22_203
*2387 FILLER_22_21
*2388 FILLER_22_210
*2389 FILLER_22_217
*2390 FILLER_22_224
*2391 FILLER_22_231
*2392 FILLER_22_238
*2393 FILLER_22_245
*2394 FILLER_22_252
*2395 FILLER_22_259
*2396 FILLER_22_266
*2397 FILLER_22_273
*2398 FILLER_22_28
*2399 FILLER_22_280
*2400 FILLER_22_287
*2401 FILLER_22_294
*2402 FILLER_22_301
*2403 FILLER_22_308
*2404 FILLER_22_315
*2405 FILLER_22_322
*2406 FILLER_22_329
*2407 FILLER_22_336
*2408 FILLER_22_343
*2409 FILLER_22_35
*2410 FILLER_22_350
*2411 FILLER_22_357
*2412 FILLER_22_364
*2413 FILLER_22_371
*2414 FILLER_22_378
*2415 FILLER_22_385
*2416 FILLER_22_392
*2417 FILLER_22_399
*2418 FILLER_22_406
*2419 FILLER_22_413
*2420 FILLER_22_42
*2421 FILLER_22_420
*2422 FILLER_22_427
*2423 FILLER_22_434
*2424 FILLER_22_441
*2425 FILLER_22_448
*2426 FILLER_22_455
*2427 FILLER_22_462
*2428 FILLER_22_469
*2429 FILLER_22_476
*2430 FILLER_22_483
*2431 FILLER_22_49
*2432 FILLER_22_490
*2433 FILLER_22_497
*2434 FILLER_22_504
*2435 FILLER_22_511
*2436 FILLER_22_518
*2437 FILLER_22_525
*2438 FILLER_22_532
*2439 FILLER_22_539
*2440 FILLER_22_546
*2441 FILLER_22_553
*2442 FILLER_22_56
*2443 FILLER_22_560
*2444 FILLER_22_567
*2445 FILLER_22_574
*2446 FILLER_22_581
*2447 FILLER_22_588
*2448 FILLER_22_595
*2449 FILLER_22_602
*2450 FILLER_22_609
*2451 FILLER_22_616
*2452 FILLER_22_623
*2453 FILLER_22_63
*2454 FILLER_22_630
*2455 FILLER_22_637
*2456 FILLER_22_644
*2457 FILLER_22_651
*2458 FILLER_22_658
*2459 FILLER_22_665
*2460 FILLER_22_672
*2461 FILLER_22_679
*2462 FILLER_22_686
*2463 FILLER_22_693
*2464 FILLER_22_7
*2465 FILLER_22_70
*2466 FILLER_22_700
*2467 FILLER_22_707
*2468 FILLER_22_714
*2469 FILLER_22_721
*2470 FILLER_22_728
*2471 FILLER_22_735
*2472 FILLER_22_742
*2473 FILLER_22_749
*2474 FILLER_22_756
*2475 FILLER_22_763
*2476 FILLER_22_77
*2477 FILLER_22_770
*2478 FILLER_22_777
*2479 FILLER_22_784
*2480 FILLER_22_791
*2481 FILLER_22_798
*2482 FILLER_22_805
*2483 FILLER_22_812
*2484 FILLER_22_819
*2485 FILLER_22_826
*2486 FILLER_22_833
*2487 FILLER_22_84
*2488 FILLER_22_840
*2489 FILLER_22_847
*2490 FILLER_22_854
*2491 FILLER_22_861
*2492 FILLER_22_868
*2493 FILLER_22_875
*2494 FILLER_22_882
*2495 FILLER_22_889
*2496 FILLER_22_896
*2497 FILLER_22_903
*2498 FILLER_22_91
*2499 FILLER_22_910
*2500 FILLER_22_917
*2501 FILLER_22_924
*2502 FILLER_22_931
*2503 FILLER_22_938
*2504 FILLER_22_945
*2505 FILLER_22_952
*2506 FILLER_22_959
*2507 FILLER_22_966
*2508 FILLER_22_973
*2509 FILLER_22_98
*2510 FILLER_22_980
*2511 FILLER_22_987
*2512 FILLER_22_994
*2513 FILLER_23_0
*2514 FILLER_23_1001
*2515 FILLER_23_1008
*2516 FILLER_23_1015
*2517 FILLER_23_1022
*2518 FILLER_23_1029
*2519 FILLER_23_1036
*2520 FILLER_23_1043
*2521 FILLER_23_105
*2522 FILLER_23_1050
*2523 FILLER_23_1057
*2524 FILLER_23_1064
*2525 FILLER_23_1071
*2526 FILLER_23_1078
*2527 FILLER_23_1085
*2528 FILLER_23_1092
*2529 FILLER_23_1099
*2530 FILLER_23_112
*2531 FILLER_23_119
*2532 FILLER_23_126
*2533 FILLER_23_133
*2534 FILLER_23_14
*2535 FILLER_23_140
*2536 FILLER_23_147
*2537 FILLER_23_154
*2538 FILLER_23_161
*2539 FILLER_23_168
*2540 FILLER_23_175
*2541 FILLER_23_182
*2542 FILLER_23_189
*2543 FILLER_23_196
*2544 FILLER_23_203
*2545 FILLER_23_21
*2546 FILLER_23_210
*2547 FILLER_23_217
*2548 FILLER_23_224
*2549 FILLER_23_231
*2550 FILLER_23_238
*2551 FILLER_23_245
*2552 FILLER_23_252
*2553 FILLER_23_259
*2554 FILLER_23_266
*2555 FILLER_23_273
*2556 FILLER_23_28
*2557 FILLER_23_280
*2558 FILLER_23_287
*2559 FILLER_23_294
*2560 FILLER_23_301
*2561 FILLER_23_308
*2562 FILLER_23_315
*2563 FILLER_23_322
*2564 FILLER_23_329
*2565 FILLER_23_336
*2566 FILLER_23_343
*2567 FILLER_23_35
*2568 FILLER_23_350
*2569 FILLER_23_357
*2570 FILLER_23_364
*2571 FILLER_23_371
*2572 FILLER_23_378
*2573 FILLER_23_385
*2574 FILLER_23_392
*2575 FILLER_23_399
*2576 FILLER_23_406
*2577 FILLER_23_413
*2578 FILLER_23_42
*2579 FILLER_23_420
*2580 FILLER_23_427
*2581 FILLER_23_434
*2582 FILLER_23_441
*2583 FILLER_23_448
*2584 FILLER_23_455
*2585 FILLER_23_462
*2586 FILLER_23_469
*2587 FILLER_23_476
*2588 FILLER_23_483
*2589 FILLER_23_49
*2590 FILLER_23_490
*2591 FILLER_23_497
*2592 FILLER_23_504
*2593 FILLER_23_511
*2594 FILLER_23_518
*2595 FILLER_23_525
*2596 FILLER_23_532
*2597 FILLER_23_539
*2598 FILLER_23_546
*2599 FILLER_23_553
*2600 FILLER_23_56
*2601 FILLER_23_560
*2602 FILLER_23_567
*2603 FILLER_23_574
*2604 FILLER_23_581
*2605 FILLER_23_588
*2606 FILLER_23_595
*2607 FILLER_23_602
*2608 FILLER_23_609
*2609 FILLER_23_616
*2610 FILLER_23_623
*2611 FILLER_23_63
*2612 FILLER_23_630
*2613 FILLER_23_637
*2614 FILLER_23_644
*2615 FILLER_23_651
*2616 FILLER_23_658
*2617 FILLER_23_665
*2618 FILLER_23_672
*2619 FILLER_23_679
*2620 FILLER_23_686
*2621 FILLER_23_693
*2622 FILLER_23_7
*2623 FILLER_23_70
*2624 FILLER_23_700
*2625 FILLER_23_707
*2626 FILLER_23_714
*2627 FILLER_23_721
*2628 FILLER_23_728
*2629 FILLER_23_735
*2630 FILLER_23_742
*2631 FILLER_23_749
*2632 FILLER_23_756
*2633 FILLER_23_763
*2634 FILLER_23_77
*2635 FILLER_23_770
*2636 FILLER_23_777
*2637 FILLER_23_784
*2638 FILLER_23_791
*2639 FILLER_23_798
*2640 FILLER_23_805
*2641 FILLER_23_812
*2642 FILLER_23_819
*2643 FILLER_23_826
*2644 FILLER_23_833
*2645 FILLER_23_84
*2646 FILLER_23_840
*2647 FILLER_23_847
*2648 FILLER_23_854
*2649 FILLER_23_861
*2650 FILLER_23_868
*2651 FILLER_23_875
*2652 FILLER_23_882
*2653 FILLER_23_889
*2654 FILLER_23_896
*2655 FILLER_23_903
*2656 FILLER_23_91
*2657 FILLER_23_910
*2658 FILLER_23_917
*2659 FILLER_23_924
*2660 FILLER_23_931
*2661 FILLER_23_938
*2662 FILLER_23_945
*2663 FILLER_23_952
*2664 FILLER_23_959
*2665 FILLER_23_966
*2666 FILLER_23_973
*2667 FILLER_23_98
*2668 FILLER_23_980
*2669 FILLER_23_987
*2670 FILLER_23_994
*2671 FILLER_24_0
*2672 FILLER_24_1001
*2673 FILLER_24_1008
*2674 FILLER_24_1015
*2675 FILLER_24_1022
*2676 FILLER_24_1029
*2677 FILLER_24_1036
*2678 FILLER_24_1043
*2679 FILLER_24_105
*2680 FILLER_24_1050
*2681 FILLER_24_1057
*2682 FILLER_24_1064
*2683 FILLER_24_1071
*2684 FILLER_24_1078
*2685 FILLER_24_1085
*2686 FILLER_24_1092
*2687 FILLER_24_1099
*2688 FILLER_24_112
*2689 FILLER_24_119
*2690 FILLER_24_126
*2691 FILLER_24_133
*2692 FILLER_24_14
*2693 FILLER_24_140
*2694 FILLER_24_147
*2695 FILLER_24_154
*2696 FILLER_24_161
*2697 FILLER_24_168
*2698 FILLER_24_175
*2699 FILLER_24_182
*2700 FILLER_24_189
*2701 FILLER_24_196
*2702 FILLER_24_203
*2703 FILLER_24_21
*2704 FILLER_24_210
*2705 FILLER_24_217
*2706 FILLER_24_224
*2707 FILLER_24_231
*2708 FILLER_24_238
*2709 FILLER_24_245
*2710 FILLER_24_252
*2711 FILLER_24_259
*2712 FILLER_24_266
*2713 FILLER_24_273
*2714 FILLER_24_28
*2715 FILLER_24_280
*2716 FILLER_24_287
*2717 FILLER_24_294
*2718 FILLER_24_301
*2719 FILLER_24_308
*2720 FILLER_24_315
*2721 FILLER_24_322
*2722 FILLER_24_329
*2723 FILLER_24_336
*2724 FILLER_24_343
*2725 FILLER_24_35
*2726 FILLER_24_350
*2727 FILLER_24_357
*2728 FILLER_24_364
*2729 FILLER_24_371
*2730 FILLER_24_378
*2731 FILLER_24_385
*2732 FILLER_24_392
*2733 FILLER_24_399
*2734 FILLER_24_406
*2735 FILLER_24_413
*2736 FILLER_24_42
*2737 FILLER_24_420
*2738 FILLER_24_427
*2739 FILLER_24_434
*2740 FILLER_24_441
*2741 FILLER_24_448
*2742 FILLER_24_455
*2743 FILLER_24_462
*2744 FILLER_24_469
*2745 FILLER_24_476
*2746 FILLER_24_483
*2747 FILLER_24_49
*2748 FILLER_24_490
*2749 FILLER_24_497
*2750 FILLER_24_504
*2751 FILLER_24_511
*2752 FILLER_24_518
*2753 FILLER_24_525
*2754 FILLER_24_532
*2755 FILLER_24_539
*2756 FILLER_24_546
*2757 FILLER_24_553
*2758 FILLER_24_56
*2759 FILLER_24_560
*2760 FILLER_24_567
*2761 FILLER_24_574
*2762 FILLER_24_581
*2763 FILLER_24_588
*2764 FILLER_24_595
*2765 FILLER_24_602
*2766 FILLER_24_609
*2767 FILLER_24_616
*2768 FILLER_24_623
*2769 FILLER_24_63
*2770 FILLER_24_630
*2771 FILLER_24_637
*2772 FILLER_24_644
*2773 FILLER_24_651
*2774 FILLER_24_658
*2775 FILLER_24_665
*2776 FILLER_24_672
*2777 FILLER_24_679
*2778 FILLER_24_686
*2779 FILLER_24_693
*2780 FILLER_24_7
*2781 FILLER_24_70
*2782 FILLER_24_700
*2783 FILLER_24_707
*2784 FILLER_24_714
*2785 FILLER_24_721
*2786 FILLER_24_728
*2787 FILLER_24_735
*2788 FILLER_24_742
*2789 FILLER_24_749
*2790 FILLER_24_756
*2791 FILLER_24_763
*2792 FILLER_24_77
*2793 FILLER_24_770
*2794 FILLER_24_777
*2795 FILLER_24_784
*2796 FILLER_24_791
*2797 FILLER_24_798
*2798 FILLER_24_805
*2799 FILLER_24_812
*2800 FILLER_24_819
*2801 FILLER_24_826
*2802 FILLER_24_833
*2803 FILLER_24_84
*2804 FILLER_24_840
*2805 FILLER_24_847
*2806 FILLER_24_854
*2807 FILLER_24_861
*2808 FILLER_24_868
*2809 FILLER_24_875
*2810 FILLER_24_882
*2811 FILLER_24_889
*2812 FILLER_24_896
*2813 FILLER_24_903
*2814 FILLER_24_91
*2815 FILLER_24_910
*2816 FILLER_24_917
*2817 FILLER_24_924
*2818 FILLER_24_931
*2819 FILLER_24_938
*2820 FILLER_24_945
*2821 FILLER_24_952
*2822 FILLER_24_959
*2823 FILLER_24_966
*2824 FILLER_24_973
*2825 FILLER_24_98
*2826 FILLER_24_980
*2827 FILLER_24_987
*2828 FILLER_24_994
*2829 FILLER_25_0
*2830 FILLER_25_1001
*2831 FILLER_25_1008
*2832 FILLER_25_1015
*2833 FILLER_25_1022
*2834 FILLER_25_1029
*2835 FILLER_25_1036
*2836 FILLER_25_1043
*2837 FILLER_25_105
*2838 FILLER_25_1050
*2839 FILLER_25_1057
*2840 FILLER_25_1064
*2841 FILLER_25_1071
*2842 FILLER_25_1078
*2843 FILLER_25_1085
*2844 FILLER_25_1092
*2845 FILLER_25_1099
*2846 FILLER_25_112
*2847 FILLER_25_119
*2848 FILLER_25_126
*2849 FILLER_25_133
*2850 FILLER_25_14
*2851 FILLER_25_140
*2852 FILLER_25_147
*2853 FILLER_25_154
*2854 FILLER_25_161
*2855 FILLER_25_168
*2856 FILLER_25_175
*2857 FILLER_25_182
*2858 FILLER_25_189
*2859 FILLER_25_196
*2860 FILLER_25_203
*2861 FILLER_25_21
*2862 FILLER_25_210
*2863 FILLER_25_217
*2864 FILLER_25_224
*2865 FILLER_25_231
*2866 FILLER_25_238
*2867 FILLER_25_245
*2868 FILLER_25_252
*2869 FILLER_25_259
*2870 FILLER_25_266
*2871 FILLER_25_273
*2872 FILLER_25_28
*2873 FILLER_25_280
*2874 FILLER_25_287
*2875 FILLER_25_294
*2876 FILLER_25_301
*2877 FILLER_25_308
*2878 FILLER_25_315
*2879 FILLER_25_322
*2880 FILLER_25_329
*2881 FILLER_25_336
*2882 FILLER_25_343
*2883 FILLER_25_35
*2884 FILLER_25_350
*2885 FILLER_25_357
*2886 FILLER_25_364
*2887 FILLER_25_371
*2888 FILLER_25_378
*2889 FILLER_25_385
*2890 FILLER_25_392
*2891 FILLER_25_399
*2892 FILLER_25_406
*2893 FILLER_25_413
*2894 FILLER_25_42
*2895 FILLER_25_420
*2896 FILLER_25_427
*2897 FILLER_25_434
*2898 FILLER_25_441
*2899 FILLER_25_448
*2900 FILLER_25_455
*2901 FILLER_25_462
*2902 FILLER_25_469
*2903 FILLER_25_476
*2904 FILLER_25_483
*2905 FILLER_25_49
*2906 FILLER_25_490
*2907 FILLER_25_497
*2908 FILLER_25_504
*2909 FILLER_25_511
*2910 FILLER_25_518
*2911 FILLER_25_525
*2912 FILLER_25_532
*2913 FILLER_25_539
*2914 FILLER_25_546
*2915 FILLER_25_553
*2916 FILLER_25_56
*2917 FILLER_25_560
*2918 FILLER_25_567
*2919 FILLER_25_574
*2920 FILLER_25_581
*2921 FILLER_25_588
*2922 FILLER_25_595
*2923 FILLER_25_602
*2924 FILLER_25_609
*2925 FILLER_25_616
*2926 FILLER_25_623
*2927 FILLER_25_63
*2928 FILLER_25_630
*2929 FILLER_25_637
*2930 FILLER_25_644
*2931 FILLER_25_651
*2932 FILLER_25_658
*2933 FILLER_25_665
*2934 FILLER_25_672
*2935 FILLER_25_679
*2936 FILLER_25_686
*2937 FILLER_25_693
*2938 FILLER_25_7
*2939 FILLER_25_70
*2940 FILLER_25_700
*2941 FILLER_25_707
*2942 FILLER_25_714
*2943 FILLER_25_721
*2944 FILLER_25_728
*2945 FILLER_25_735
*2946 FILLER_25_742
*2947 FILLER_25_749
*2948 FILLER_25_756
*2949 FILLER_25_763
*2950 FILLER_25_77
*2951 FILLER_25_770
*2952 FILLER_25_777
*2953 FILLER_25_784
*2954 FILLER_25_791
*2955 FILLER_25_798
*2956 FILLER_25_805
*2957 FILLER_25_812
*2958 FILLER_25_819
*2959 FILLER_25_826
*2960 FILLER_25_833
*2961 FILLER_25_84
*2962 FILLER_25_840
*2963 FILLER_25_847
*2964 FILLER_25_854
*2965 FILLER_25_861
*2966 FILLER_25_868
*2967 FILLER_25_875
*2968 FILLER_25_882
*2969 FILLER_25_889
*2970 FILLER_25_896
*2971 FILLER_25_903
*2972 FILLER_25_91
*2973 FILLER_25_910
*2974 FILLER_25_917
*2975 FILLER_25_924
*2976 FILLER_25_931
*2977 FILLER_25_938
*2978 FILLER_25_945
*2979 FILLER_25_952
*2980 FILLER_25_959
*2981 FILLER_25_966
*2982 FILLER_25_973
*2983 FILLER_25_98
*2984 FILLER_25_980
*2985 FILLER_25_987
*2986 FILLER_25_994
*2987 FILLER_26_0
*2988 FILLER_26_1001
*2989 FILLER_26_1008
*2990 FILLER_26_1015
*2991 FILLER_26_1022
*2992 FILLER_26_1029
*2993 FILLER_26_1036
*2994 FILLER_26_1043
*2995 FILLER_26_105
*2996 FILLER_26_1050
*2997 FILLER_26_1057
*2998 FILLER_26_1064
*2999 FILLER_26_1071
*3000 FILLER_26_1078
*3001 FILLER_26_1085
*3002 FILLER_26_1092
*3003 FILLER_26_1099
*3004 FILLER_26_112
*3005 FILLER_26_119
*3006 FILLER_26_126
*3007 FILLER_26_133
*3008 FILLER_26_14
*3009 FILLER_26_140
*3010 FILLER_26_147
*3011 FILLER_26_154
*3012 FILLER_26_161
*3013 FILLER_26_168
*3014 FILLER_26_175
*3015 FILLER_26_182
*3016 FILLER_26_189
*3017 FILLER_26_196
*3018 FILLER_26_203
*3019 FILLER_26_21
*3020 FILLER_26_210
*3021 FILLER_26_217
*3022 FILLER_26_224
*3023 FILLER_26_231
*3024 FILLER_26_238
*3025 FILLER_26_245
*3026 FILLER_26_252
*3027 FILLER_26_259
*3028 FILLER_26_266
*3029 FILLER_26_273
*3030 FILLER_26_28
*3031 FILLER_26_280
*3032 FILLER_26_287
*3033 FILLER_26_294
*3034 FILLER_26_301
*3035 FILLER_26_308
*3036 FILLER_26_315
*3037 FILLER_26_322
*3038 FILLER_26_329
*3039 FILLER_26_336
*3040 FILLER_26_343
*3041 FILLER_26_35
*3042 FILLER_26_350
*3043 FILLER_26_357
*3044 FILLER_26_364
*3045 FILLER_26_371
*3046 FILLER_26_378
*3047 FILLER_26_385
*3048 FILLER_26_392
*3049 FILLER_26_399
*3050 FILLER_26_406
*3051 FILLER_26_413
*3052 FILLER_26_42
*3053 FILLER_26_420
*3054 FILLER_26_427
*3055 FILLER_26_434
*3056 FILLER_26_441
*3057 FILLER_26_448
*3058 FILLER_26_455
*3059 FILLER_26_462
*3060 FILLER_26_469
*3061 FILLER_26_476
*3062 FILLER_26_483
*3063 FILLER_26_49
*3064 FILLER_26_490
*3065 FILLER_26_497
*3066 FILLER_26_504
*3067 FILLER_26_511
*3068 FILLER_26_518
*3069 FILLER_26_525
*3070 FILLER_26_532
*3071 FILLER_26_539
*3072 FILLER_26_546
*3073 FILLER_26_553
*3074 FILLER_26_56
*3075 FILLER_26_560
*3076 FILLER_26_567
*3077 FILLER_26_574
*3078 FILLER_26_581
*3079 FILLER_26_588
*3080 FILLER_26_595
*3081 FILLER_26_602
*3082 FILLER_26_609
*3083 FILLER_26_616
*3084 FILLER_26_623
*3085 FILLER_26_63
*3086 FILLER_26_630
*3087 FILLER_26_637
*3088 FILLER_26_644
*3089 FILLER_26_651
*3090 FILLER_26_658
*3091 FILLER_26_665
*3092 FILLER_26_672
*3093 FILLER_26_679
*3094 FILLER_26_686
*3095 FILLER_26_693
*3096 FILLER_26_7
*3097 FILLER_26_70
*3098 FILLER_26_700
*3099 FILLER_26_707
*3100 FILLER_26_714
*3101 FILLER_26_721
*3102 FILLER_26_728
*3103 FILLER_26_735
*3104 FILLER_26_742
*3105 FILLER_26_749
*3106 FILLER_26_756
*3107 FILLER_26_763
*3108 FILLER_26_77
*3109 FILLER_26_770
*3110 FILLER_26_777
*3111 FILLER_26_784
*3112 FILLER_26_791
*3113 FILLER_26_798
*3114 FILLER_26_805
*3115 FILLER_26_812
*3116 FILLER_26_819
*3117 FILLER_26_826
*3118 FILLER_26_833
*3119 FILLER_26_84
*3120 FILLER_26_840
*3121 FILLER_26_847
*3122 FILLER_26_854
*3123 FILLER_26_861
*3124 FILLER_26_868
*3125 FILLER_26_875
*3126 FILLER_26_882
*3127 FILLER_26_889
*3128 FILLER_26_896
*3129 FILLER_26_903
*3130 FILLER_26_91
*3131 FILLER_26_910
*3132 FILLER_26_917
*3133 FILLER_26_924
*3134 FILLER_26_931
*3135 FILLER_26_938
*3136 FILLER_26_945
*3137 FILLER_26_952
*3138 FILLER_26_959
*3139 FILLER_26_966
*3140 FILLER_26_973
*3141 FILLER_26_98
*3142 FILLER_26_980
*3143 FILLER_26_987
*3144 FILLER_26_994
*3145 FILLER_27_0
*3146 FILLER_27_1001
*3147 FILLER_27_1008
*3148 FILLER_27_1015
*3149 FILLER_27_1022
*3150 FILLER_27_1029
*3151 FILLER_27_1036
*3152 FILLER_27_1043
*3153 FILLER_27_105
*3154 FILLER_27_1050
*3155 FILLER_27_1057
*3156 FILLER_27_1064
*3157 FILLER_27_1071
*3158 FILLER_27_1078
*3159 FILLER_27_1085
*3160 FILLER_27_1092
*3161 FILLER_27_1099
*3162 FILLER_27_112
*3163 FILLER_27_119
*3164 FILLER_27_126
*3165 FILLER_27_133
*3166 FILLER_27_14
*3167 FILLER_27_140
*3168 FILLER_27_147
*3169 FILLER_27_154
*3170 FILLER_27_161
*3171 FILLER_27_168
*3172 FILLER_27_175
*3173 FILLER_27_182
*3174 FILLER_27_189
*3175 FILLER_27_196
*3176 FILLER_27_203
*3177 FILLER_27_21
*3178 FILLER_27_210
*3179 FILLER_27_217
*3180 FILLER_27_224
*3181 FILLER_27_231
*3182 FILLER_27_238
*3183 FILLER_27_245
*3184 FILLER_27_252
*3185 FILLER_27_259
*3186 FILLER_27_266
*3187 FILLER_27_273
*3188 FILLER_27_28
*3189 FILLER_27_280
*3190 FILLER_27_287
*3191 FILLER_27_294
*3192 FILLER_27_301
*3193 FILLER_27_308
*3194 FILLER_27_315
*3195 FILLER_27_322
*3196 FILLER_27_329
*3197 FILLER_27_336
*3198 FILLER_27_343
*3199 FILLER_27_35
*3200 FILLER_27_350
*3201 FILLER_27_357
*3202 FILLER_27_364
*3203 FILLER_27_371
*3204 FILLER_27_378
*3205 FILLER_27_385
*3206 FILLER_27_392
*3207 FILLER_27_399
*3208 FILLER_27_406
*3209 FILLER_27_413
*3210 FILLER_27_42
*3211 FILLER_27_420
*3212 FILLER_27_427
*3213 FILLER_27_434
*3214 FILLER_27_441
*3215 FILLER_27_448
*3216 FILLER_27_455
*3217 FILLER_27_462
*3218 FILLER_27_469
*3219 FILLER_27_476
*3220 FILLER_27_483
*3221 FILLER_27_49
*3222 FILLER_27_490
*3223 FILLER_27_497
*3224 FILLER_27_504
*3225 FILLER_27_511
*3226 FILLER_27_518
*3227 FILLER_27_525
*3228 FILLER_27_532
*3229 FILLER_27_539
*3230 FILLER_27_546
*3231 FILLER_27_553
*3232 FILLER_27_56
*3233 FILLER_27_560
*3234 FILLER_27_567
*3235 FILLER_27_574
*3236 FILLER_27_581
*3237 FILLER_27_588
*3238 FILLER_27_595
*3239 FILLER_27_602
*3240 FILLER_27_609
*3241 FILLER_27_616
*3242 FILLER_27_623
*3243 FILLER_27_63
*3244 FILLER_27_630
*3245 FILLER_27_637
*3246 FILLER_27_644
*3247 FILLER_27_651
*3248 FILLER_27_658
*3249 FILLER_27_665
*3250 FILLER_27_672
*3251 FILLER_27_679
*3252 FILLER_27_686
*3253 FILLER_27_693
*3254 FILLER_27_7
*3255 FILLER_27_70
*3256 FILLER_27_700
*3257 FILLER_27_707
*3258 FILLER_27_714
*3259 FILLER_27_721
*3260 FILLER_27_728
*3261 FILLER_27_735
*3262 FILLER_27_742
*3263 FILLER_27_749
*3264 FILLER_27_756
*3265 FILLER_27_763
*3266 FILLER_27_77
*3267 FILLER_27_770
*3268 FILLER_27_777
*3269 FILLER_27_784
*3270 FILLER_27_791
*3271 FILLER_27_798
*3272 FILLER_27_805
*3273 FILLER_27_812
*3274 FILLER_27_819
*3275 FILLER_27_826
*3276 FILLER_27_833
*3277 FILLER_27_84
*3278 FILLER_27_840
*3279 FILLER_27_847
*3280 FILLER_27_854
*3281 FILLER_27_861
*3282 FILLER_27_868
*3283 FILLER_27_875
*3284 FILLER_27_882
*3285 FILLER_27_889
*3286 FILLER_27_896
*3287 FILLER_27_903
*3288 FILLER_27_91
*3289 FILLER_27_910
*3290 FILLER_27_917
*3291 FILLER_27_924
*3292 FILLER_27_931
*3293 FILLER_27_938
*3294 FILLER_27_945
*3295 FILLER_27_952
*3296 FILLER_27_959
*3297 FILLER_27_966
*3298 FILLER_27_973
*3299 FILLER_27_98
*3300 FILLER_27_980
*3301 FILLER_27_987
*3302 FILLER_27_994
*3303 FILLER_28_0
*3304 FILLER_28_1001
*3305 FILLER_28_1008
*3306 FILLER_28_1015
*3307 FILLER_28_1022
*3308 FILLER_28_1029
*3309 FILLER_28_1036
*3310 FILLER_28_1043
*3311 FILLER_28_105
*3312 FILLER_28_1050
*3313 FILLER_28_1057
*3314 FILLER_28_1064
*3315 FILLER_28_1071
*3316 FILLER_28_1078
*3317 FILLER_28_1085
*3318 FILLER_28_1092
*3319 FILLER_28_1099
*3320 FILLER_28_112
*3321 FILLER_28_119
*3322 FILLER_28_126
*3323 FILLER_28_133
*3324 FILLER_28_14
*3325 FILLER_28_140
*3326 FILLER_28_147
*3327 FILLER_28_154
*3328 FILLER_28_161
*3329 FILLER_28_168
*3330 FILLER_28_175
*3331 FILLER_28_182
*3332 FILLER_28_189
*3333 FILLER_28_196
*3334 FILLER_28_203
*3335 FILLER_28_21
*3336 FILLER_28_210
*3337 FILLER_28_217
*3338 FILLER_28_224
*3339 FILLER_28_231
*3340 FILLER_28_238
*3341 FILLER_28_245
*3342 FILLER_28_252
*3343 FILLER_28_259
*3344 FILLER_28_266
*3345 FILLER_28_273
*3346 FILLER_28_28
*3347 FILLER_28_280
*3348 FILLER_28_287
*3349 FILLER_28_294
*3350 FILLER_28_301
*3351 FILLER_28_308
*3352 FILLER_28_315
*3353 FILLER_28_322
*3354 FILLER_28_329
*3355 FILLER_28_336
*3356 FILLER_28_343
*3357 FILLER_28_35
*3358 FILLER_28_350
*3359 FILLER_28_357
*3360 FILLER_28_364
*3361 FILLER_28_371
*3362 FILLER_28_378
*3363 FILLER_28_385
*3364 FILLER_28_392
*3365 FILLER_28_399
*3366 FILLER_28_406
*3367 FILLER_28_413
*3368 FILLER_28_42
*3369 FILLER_28_420
*3370 FILLER_28_427
*3371 FILLER_28_434
*3372 FILLER_28_441
*3373 FILLER_28_448
*3374 FILLER_28_455
*3375 FILLER_28_462
*3376 FILLER_28_469
*3377 FILLER_28_476
*3378 FILLER_28_483
*3379 FILLER_28_49
*3380 FILLER_28_490
*3381 FILLER_28_497
*3382 FILLER_28_504
*3383 FILLER_28_511
*3384 FILLER_28_518
*3385 FILLER_28_525
*3386 FILLER_28_532
*3387 FILLER_28_539
*3388 FILLER_28_546
*3389 FILLER_28_553
*3390 FILLER_28_56
*3391 FILLER_28_560
*3392 FILLER_28_567
*3393 FILLER_28_574
*3394 FILLER_28_581
*3395 FILLER_28_588
*3396 FILLER_28_595
*3397 FILLER_28_602
*3398 FILLER_28_609
*3399 FILLER_28_616
*3400 FILLER_28_623
*3401 FILLER_28_63
*3402 FILLER_28_630
*3403 FILLER_28_637
*3404 FILLER_28_644
*3405 FILLER_28_651
*3406 FILLER_28_658
*3407 FILLER_28_665
*3408 FILLER_28_672
*3409 FILLER_28_679
*3410 FILLER_28_686
*3411 FILLER_28_693
*3412 FILLER_28_7
*3413 FILLER_28_70
*3414 FILLER_28_700
*3415 FILLER_28_707
*3416 FILLER_28_714
*3417 FILLER_28_721
*3418 FILLER_28_728
*3419 FILLER_28_735
*3420 FILLER_28_742
*3421 FILLER_28_749
*3422 FILLER_28_756
*3423 FILLER_28_763
*3424 FILLER_28_77
*3425 FILLER_28_770
*3426 FILLER_28_777
*3427 FILLER_28_784
*3428 FILLER_28_791
*3429 FILLER_28_798
*3430 FILLER_28_805
*3431 FILLER_28_812
*3432 FILLER_28_819
*3433 FILLER_28_826
*3434 FILLER_28_833
*3435 FILLER_28_84
*3436 FILLER_28_840
*3437 FILLER_28_847
*3438 FILLER_28_854
*3439 FILLER_28_861
*3440 FILLER_28_868
*3441 FILLER_28_875
*3442 FILLER_28_882
*3443 FILLER_28_889
*3444 FILLER_28_896
*3445 FILLER_28_903
*3446 FILLER_28_91
*3447 FILLER_28_910
*3448 FILLER_28_917
*3449 FILLER_28_924
*3450 FILLER_28_931
*3451 FILLER_28_938
*3452 FILLER_28_945
*3453 FILLER_28_952
*3454 FILLER_28_959
*3455 FILLER_28_966
*3456 FILLER_28_973
*3457 FILLER_28_98
*3458 FILLER_28_980
*3459 FILLER_28_987
*3460 FILLER_28_994
*3461 FILLER_29_0
*3462 FILLER_29_1001
*3463 FILLER_29_1008
*3464 FILLER_29_1015
*3465 FILLER_29_1022
*3466 FILLER_29_1029
*3467 FILLER_29_1036
*3468 FILLER_29_1043
*3469 FILLER_29_105
*3470 FILLER_29_1050
*3471 FILLER_29_1057
*3472 FILLER_29_1064
*3473 FILLER_29_1071
*3474 FILLER_29_1078
*3475 FILLER_29_1085
*3476 FILLER_29_1092
*3477 FILLER_29_1099
*3478 FILLER_29_112
*3479 FILLER_29_119
*3480 FILLER_29_126
*3481 FILLER_29_133
*3482 FILLER_29_14
*3483 FILLER_29_140
*3484 FILLER_29_147
*3485 FILLER_29_154
*3486 FILLER_29_161
*3487 FILLER_29_168
*3488 FILLER_29_175
*3489 FILLER_29_182
*3490 FILLER_29_189
*3491 FILLER_29_196
*3492 FILLER_29_203
*3493 FILLER_29_21
*3494 FILLER_29_210
*3495 FILLER_29_217
*3496 FILLER_29_224
*3497 FILLER_29_231
*3498 FILLER_29_238
*3499 FILLER_29_245
*3500 FILLER_29_252
*3501 FILLER_29_259
*3502 FILLER_29_266
*3503 FILLER_29_273
*3504 FILLER_29_28
*3505 FILLER_29_280
*3506 FILLER_29_287
*3507 FILLER_29_294
*3508 FILLER_29_301
*3509 FILLER_29_308
*3510 FILLER_29_315
*3511 FILLER_29_322
*3512 FILLER_29_329
*3513 FILLER_29_336
*3514 FILLER_29_343
*3515 FILLER_29_35
*3516 FILLER_29_350
*3517 FILLER_29_357
*3518 FILLER_29_364
*3519 FILLER_29_371
*3520 FILLER_29_378
*3521 FILLER_29_385
*3522 FILLER_29_392
*3523 FILLER_29_399
*3524 FILLER_29_406
*3525 FILLER_29_413
*3526 FILLER_29_42
*3527 FILLER_29_420
*3528 FILLER_29_427
*3529 FILLER_29_434
*3530 FILLER_29_441
*3531 FILLER_29_448
*3532 FILLER_29_455
*3533 FILLER_29_462
*3534 FILLER_29_469
*3535 FILLER_29_476
*3536 FILLER_29_483
*3537 FILLER_29_49
*3538 FILLER_29_490
*3539 FILLER_29_497
*3540 FILLER_29_504
*3541 FILLER_29_511
*3542 FILLER_29_518
*3543 FILLER_29_525
*3544 FILLER_29_532
*3545 FILLER_29_539
*3546 FILLER_29_546
*3547 FILLER_29_553
*3548 FILLER_29_56
*3549 FILLER_29_560
*3550 FILLER_29_567
*3551 FILLER_29_574
*3552 FILLER_29_581
*3553 FILLER_29_588
*3554 FILLER_29_595
*3555 FILLER_29_602
*3556 FILLER_29_609
*3557 FILLER_29_616
*3558 FILLER_29_623
*3559 FILLER_29_63
*3560 FILLER_29_630
*3561 FILLER_29_637
*3562 FILLER_29_644
*3563 FILLER_29_651
*3564 FILLER_29_658
*3565 FILLER_29_665
*3566 FILLER_29_672
*3567 FILLER_29_679
*3568 FILLER_29_686
*3569 FILLER_29_693
*3570 FILLER_29_7
*3571 FILLER_29_70
*3572 FILLER_29_700
*3573 FILLER_29_707
*3574 FILLER_29_714
*3575 FILLER_29_721
*3576 FILLER_29_728
*3577 FILLER_29_735
*3578 FILLER_29_742
*3579 FILLER_29_749
*3580 FILLER_29_756
*3581 FILLER_29_763
*3582 FILLER_29_77
*3583 FILLER_29_770
*3584 FILLER_29_777
*3585 FILLER_29_784
*3586 FILLER_29_791
*3587 FILLER_29_798
*3588 FILLER_29_805
*3589 FILLER_29_812
*3590 FILLER_29_819
*3591 FILLER_29_826
*3592 FILLER_29_833
*3593 FILLER_29_84
*3594 FILLER_29_840
*3595 FILLER_29_847
*3596 FILLER_29_854
*3597 FILLER_29_861
*3598 FILLER_29_868
*3599 FILLER_29_875
*3600 FILLER_29_882
*3601 FILLER_29_889
*3602 FILLER_29_896
*3603 FILLER_29_903
*3604 FILLER_29_91
*3605 FILLER_29_910
*3606 FILLER_29_917
*3607 FILLER_29_924
*3608 FILLER_29_931
*3609 FILLER_29_938
*3610 FILLER_29_945
*3611 FILLER_29_952
*3612 FILLER_29_959
*3613 FILLER_29_966
*3614 FILLER_29_973
*3615 FILLER_29_98
*3616 FILLER_29_980
*3617 FILLER_29_987
*3618 FILLER_29_994
*3619 FILLER_2_0
*3620 FILLER_2_1001
*3621 FILLER_2_1008
*3622 FILLER_2_1015
*3623 FILLER_2_1022
*3624 FILLER_2_1029
*3625 FILLER_2_1036
*3626 FILLER_2_1043
*3627 FILLER_2_105
*3628 FILLER_2_1050
*3629 FILLER_2_1057
*3630 FILLER_2_1064
*3631 FILLER_2_1071
*3632 FILLER_2_1078
*3633 FILLER_2_1085
*3634 FILLER_2_1092
*3635 FILLER_2_1099
*3636 FILLER_2_112
*3637 FILLER_2_119
*3638 FILLER_2_126
*3639 FILLER_2_133
*3640 FILLER_2_14
*3641 FILLER_2_140
*3642 FILLER_2_147
*3643 FILLER_2_154
*3644 FILLER_2_161
*3645 FILLER_2_168
*3646 FILLER_2_175
*3647 FILLER_2_182
*3648 FILLER_2_189
*3649 FILLER_2_196
*3650 FILLER_2_203
*3651 FILLER_2_21
*3652 FILLER_2_210
*3653 FILLER_2_217
*3654 FILLER_2_224
*3655 FILLER_2_231
*3656 FILLER_2_238
*3657 FILLER_2_245
*3658 FILLER_2_252
*3659 FILLER_2_259
*3660 FILLER_2_266
*3661 FILLER_2_273
*3662 FILLER_2_28
*3663 FILLER_2_280
*3664 FILLER_2_287
*3665 FILLER_2_294
*3666 FILLER_2_301
*3667 FILLER_2_308
*3668 FILLER_2_315
*3669 FILLER_2_322
*3670 FILLER_2_329
*3671 FILLER_2_336
*3672 FILLER_2_343
*3673 FILLER_2_35
*3674 FILLER_2_350
*3675 FILLER_2_357
*3676 FILLER_2_364
*3677 FILLER_2_371
*3678 FILLER_2_378
*3679 FILLER_2_385
*3680 FILLER_2_392
*3681 FILLER_2_399
*3682 FILLER_2_406
*3683 FILLER_2_413
*3684 FILLER_2_42
*3685 FILLER_2_420
*3686 FILLER_2_427
*3687 FILLER_2_434
*3688 FILLER_2_441
*3689 FILLER_2_448
*3690 FILLER_2_455
*3691 FILLER_2_462
*3692 FILLER_2_469
*3693 FILLER_2_476
*3694 FILLER_2_483
*3695 FILLER_2_49
*3696 FILLER_2_490
*3697 FILLER_2_497
*3698 FILLER_2_504
*3699 FILLER_2_511
*3700 FILLER_2_518
*3701 FILLER_2_525
*3702 FILLER_2_532
*3703 FILLER_2_539
*3704 FILLER_2_546
*3705 FILLER_2_553
*3706 FILLER_2_56
*3707 FILLER_2_560
*3708 FILLER_2_567
*3709 FILLER_2_574
*3710 FILLER_2_581
*3711 FILLER_2_588
*3712 FILLER_2_595
*3713 FILLER_2_602
*3714 FILLER_2_609
*3715 FILLER_2_616
*3716 FILLER_2_623
*3717 FILLER_2_63
*3718 FILLER_2_630
*3719 FILLER_2_637
*3720 FILLER_2_644
*3721 FILLER_2_651
*3722 FILLER_2_658
*3723 FILLER_2_665
*3724 FILLER_2_672
*3725 FILLER_2_679
*3726 FILLER_2_686
*3727 FILLER_2_693
*3728 FILLER_2_7
*3729 FILLER_2_70
*3730 FILLER_2_700
*3731 FILLER_2_707
*3732 FILLER_2_714
*3733 FILLER_2_721
*3734 FILLER_2_728
*3735 FILLER_2_735
*3736 FILLER_2_742
*3737 FILLER_2_749
*3738 FILLER_2_756
*3739 FILLER_2_763
*3740 FILLER_2_77
*3741 FILLER_2_770
*3742 FILLER_2_777
*3743 FILLER_2_784
*3744 FILLER_2_791
*3745 FILLER_2_798
*3746 FILLER_2_805
*3747 FILLER_2_812
*3748 FILLER_2_819
*3749 FILLER_2_826
*3750 FILLER_2_833
*3751 FILLER_2_84
*3752 FILLER_2_840
*3753 FILLER_2_847
*3754 FILLER_2_854
*3755 FILLER_2_861
*3756 FILLER_2_868
*3757 FILLER_2_875
*3758 FILLER_2_882
*3759 FILLER_2_889
*3760 FILLER_2_896
*3761 FILLER_2_903
*3762 FILLER_2_91
*3763 FILLER_2_910
*3764 FILLER_2_917
*3765 FILLER_2_924
*3766 FILLER_2_931
*3767 FILLER_2_938
*3768 FILLER_2_945
*3769 FILLER_2_952
*3770 FILLER_2_959
*3771 FILLER_2_966
*3772 FILLER_2_973
*3773 FILLER_2_98
*3774 FILLER_2_980
*3775 FILLER_2_987
*3776 FILLER_2_994
*3777 FILLER_30_0
*3778 FILLER_30_1001
*3779 FILLER_30_1008
*3780 FILLER_30_1015
*3781 FILLER_30_1022
*3782 FILLER_30_1029
*3783 FILLER_30_1036
*3784 FILLER_30_1043
*3785 FILLER_30_105
*3786 FILLER_30_1050
*3787 FILLER_30_1057
*3788 FILLER_30_1064
*3789 FILLER_30_1071
*3790 FILLER_30_1078
*3791 FILLER_30_1085
*3792 FILLER_30_1092
*3793 FILLER_30_1099
*3794 FILLER_30_112
*3795 FILLER_30_119
*3796 FILLER_30_126
*3797 FILLER_30_133
*3798 FILLER_30_14
*3799 FILLER_30_140
*3800 FILLER_30_147
*3801 FILLER_30_154
*3802 FILLER_30_161
*3803 FILLER_30_168
*3804 FILLER_30_175
*3805 FILLER_30_182
*3806 FILLER_30_189
*3807 FILLER_30_196
*3808 FILLER_30_203
*3809 FILLER_30_21
*3810 FILLER_30_210
*3811 FILLER_30_217
*3812 FILLER_30_224
*3813 FILLER_30_231
*3814 FILLER_30_238
*3815 FILLER_30_245
*3816 FILLER_30_252
*3817 FILLER_30_259
*3818 FILLER_30_266
*3819 FILLER_30_273
*3820 FILLER_30_28
*3821 FILLER_30_280
*3822 FILLER_30_287
*3823 FILLER_30_294
*3824 FILLER_30_301
*3825 FILLER_30_308
*3826 FILLER_30_315
*3827 FILLER_30_322
*3828 FILLER_30_329
*3829 FILLER_30_336
*3830 FILLER_30_343
*3831 FILLER_30_35
*3832 FILLER_30_350
*3833 FILLER_30_357
*3834 FILLER_30_364
*3835 FILLER_30_371
*3836 FILLER_30_378
*3837 FILLER_30_385
*3838 FILLER_30_392
*3839 FILLER_30_399
*3840 FILLER_30_406
*3841 FILLER_30_413
*3842 FILLER_30_42
*3843 FILLER_30_420
*3844 FILLER_30_427
*3845 FILLER_30_434
*3846 FILLER_30_441
*3847 FILLER_30_448
*3848 FILLER_30_455
*3849 FILLER_30_462
*3850 FILLER_30_469
*3851 FILLER_30_476
*3852 FILLER_30_483
*3853 FILLER_30_49
*3854 FILLER_30_490
*3855 FILLER_30_497
*3856 FILLER_30_504
*3857 FILLER_30_511
*3858 FILLER_30_518
*3859 FILLER_30_525
*3860 FILLER_30_532
*3861 FILLER_30_539
*3862 FILLER_30_546
*3863 FILLER_30_553
*3864 FILLER_30_56
*3865 FILLER_30_560
*3866 FILLER_30_567
*3867 FILLER_30_574
*3868 FILLER_30_581
*3869 FILLER_30_588
*3870 FILLER_30_595
*3871 FILLER_30_602
*3872 FILLER_30_609
*3873 FILLER_30_616
*3874 FILLER_30_623
*3875 FILLER_30_63
*3876 FILLER_30_630
*3877 FILLER_30_637
*3878 FILLER_30_644
*3879 FILLER_30_651
*3880 FILLER_30_658
*3881 FILLER_30_665
*3882 FILLER_30_672
*3883 FILLER_30_679
*3884 FILLER_30_686
*3885 FILLER_30_693
*3886 FILLER_30_7
*3887 FILLER_30_70
*3888 FILLER_30_700
*3889 FILLER_30_707
*3890 FILLER_30_714
*3891 FILLER_30_721
*3892 FILLER_30_728
*3893 FILLER_30_735
*3894 FILLER_30_742
*3895 FILLER_30_749
*3896 FILLER_30_756
*3897 FILLER_30_763
*3898 FILLER_30_77
*3899 FILLER_30_770
*3900 FILLER_30_777
*3901 FILLER_30_784
*3902 FILLER_30_791
*3903 FILLER_30_798
*3904 FILLER_30_805
*3905 FILLER_30_812
*3906 FILLER_30_819
*3907 FILLER_30_826
*3908 FILLER_30_833
*3909 FILLER_30_84
*3910 FILLER_30_840
*3911 FILLER_30_847
*3912 FILLER_30_854
*3913 FILLER_30_861
*3914 FILLER_30_868
*3915 FILLER_30_875
*3916 FILLER_30_882
*3917 FILLER_30_889
*3918 FILLER_30_896
*3919 FILLER_30_903
*3920 FILLER_30_91
*3921 FILLER_30_910
*3922 FILLER_30_917
*3923 FILLER_30_924
*3924 FILLER_30_931
*3925 FILLER_30_938
*3926 FILLER_30_945
*3927 FILLER_30_952
*3928 FILLER_30_959
*3929 FILLER_30_966
*3930 FILLER_30_973
*3931 FILLER_30_98
*3932 FILLER_30_980
*3933 FILLER_30_987
*3934 FILLER_30_994
*3935 FILLER_31_0
*3936 FILLER_31_1001
*3937 FILLER_31_1008
*3938 FILLER_31_1015
*3939 FILLER_31_1022
*3940 FILLER_31_1029
*3941 FILLER_31_1036
*3942 FILLER_31_1043
*3943 FILLER_31_105
*3944 FILLER_31_1050
*3945 FILLER_31_1057
*3946 FILLER_31_1064
*3947 FILLER_31_1071
*3948 FILLER_31_1078
*3949 FILLER_31_1085
*3950 FILLER_31_1092
*3951 FILLER_31_1099
*3952 FILLER_31_112
*3953 FILLER_31_119
*3954 FILLER_31_126
*3955 FILLER_31_133
*3956 FILLER_31_14
*3957 FILLER_31_140
*3958 FILLER_31_147
*3959 FILLER_31_154
*3960 FILLER_31_161
*3961 FILLER_31_168
*3962 FILLER_31_175
*3963 FILLER_31_182
*3964 FILLER_31_189
*3965 FILLER_31_196
*3966 FILLER_31_203
*3967 FILLER_31_21
*3968 FILLER_31_210
*3969 FILLER_31_217
*3970 FILLER_31_224
*3971 FILLER_31_231
*3972 FILLER_31_238
*3973 FILLER_31_245
*3974 FILLER_31_252
*3975 FILLER_31_259
*3976 FILLER_31_266
*3977 FILLER_31_273
*3978 FILLER_31_28
*3979 FILLER_31_280
*3980 FILLER_31_287
*3981 FILLER_31_294
*3982 FILLER_31_301
*3983 FILLER_31_308
*3984 FILLER_31_315
*3985 FILLER_31_322
*3986 FILLER_31_329
*3987 FILLER_31_336
*3988 FILLER_31_343
*3989 FILLER_31_35
*3990 FILLER_31_350
*3991 FILLER_31_357
*3992 FILLER_31_364
*3993 FILLER_31_371
*3994 FILLER_31_378
*3995 FILLER_31_385
*3996 FILLER_31_392
*3997 FILLER_31_399
*3998 FILLER_31_406
*3999 FILLER_31_413
*4000 FILLER_31_42
*4001 FILLER_31_420
*4002 FILLER_31_427
*4003 FILLER_31_434
*4004 FILLER_31_441
*4005 FILLER_31_448
*4006 FILLER_31_455
*4007 FILLER_31_462
*4008 FILLER_31_469
*4009 FILLER_31_476
*4010 FILLER_31_483
*4011 FILLER_31_49
*4012 FILLER_31_490
*4013 FILLER_31_497
*4014 FILLER_31_504
*4015 FILLER_31_511
*4016 FILLER_31_518
*4017 FILLER_31_525
*4018 FILLER_31_532
*4019 FILLER_31_539
*4020 FILLER_31_546
*4021 FILLER_31_553
*4022 FILLER_31_56
*4023 FILLER_31_560
*4024 FILLER_31_567
*4025 FILLER_31_574
*4026 FILLER_31_581
*4027 FILLER_31_588
*4028 FILLER_31_595
*4029 FILLER_31_602
*4030 FILLER_31_609
*4031 FILLER_31_616
*4032 FILLER_31_623
*4033 FILLER_31_63
*4034 FILLER_31_630
*4035 FILLER_31_637
*4036 FILLER_31_644
*4037 FILLER_31_651
*4038 FILLER_31_658
*4039 FILLER_31_665
*4040 FILLER_31_672
*4041 FILLER_31_679
*4042 FILLER_31_686
*4043 FILLER_31_693
*4044 FILLER_31_7
*4045 FILLER_31_70
*4046 FILLER_31_700
*4047 FILLER_31_707
*4048 FILLER_31_714
*4049 FILLER_31_721
*4050 FILLER_31_728
*4051 FILLER_31_735
*4052 FILLER_31_742
*4053 FILLER_31_749
*4054 FILLER_31_756
*4055 FILLER_31_763
*4056 FILLER_31_77
*4057 FILLER_31_770
*4058 FILLER_31_777
*4059 FILLER_31_784
*4060 FILLER_31_791
*4061 FILLER_31_798
*4062 FILLER_31_805
*4063 FILLER_31_812
*4064 FILLER_31_819
*4065 FILLER_31_826
*4066 FILLER_31_833
*4067 FILLER_31_84
*4068 FILLER_31_840
*4069 FILLER_31_847
*4070 FILLER_31_854
*4071 FILLER_31_861
*4072 FILLER_31_868
*4073 FILLER_31_875
*4074 FILLER_31_882
*4075 FILLER_31_889
*4076 FILLER_31_896
*4077 FILLER_31_903
*4078 FILLER_31_91
*4079 FILLER_31_910
*4080 FILLER_31_917
*4081 FILLER_31_924
*4082 FILLER_31_931
*4083 FILLER_31_938
*4084 FILLER_31_945
*4085 FILLER_31_952
*4086 FILLER_31_959
*4087 FILLER_31_966
*4088 FILLER_31_973
*4089 FILLER_31_98
*4090 FILLER_31_980
*4091 FILLER_31_987
*4092 FILLER_31_994
*4093 FILLER_32_0
*4094 FILLER_32_1001
*4095 FILLER_32_1008
*4096 FILLER_32_1015
*4097 FILLER_32_1022
*4098 FILLER_32_1029
*4099 FILLER_32_1036
*4100 FILLER_32_1043
*4101 FILLER_32_105
*4102 FILLER_32_1050
*4103 FILLER_32_1057
*4104 FILLER_32_1064
*4105 FILLER_32_1071
*4106 FILLER_32_1078
*4107 FILLER_32_1085
*4108 FILLER_32_1092
*4109 FILLER_32_1099
*4110 FILLER_32_112
*4111 FILLER_32_119
*4112 FILLER_32_126
*4113 FILLER_32_133
*4114 FILLER_32_14
*4115 FILLER_32_140
*4116 FILLER_32_147
*4117 FILLER_32_154
*4118 FILLER_32_161
*4119 FILLER_32_168
*4120 FILLER_32_175
*4121 FILLER_32_182
*4122 FILLER_32_189
*4123 FILLER_32_196
*4124 FILLER_32_203
*4125 FILLER_32_21
*4126 FILLER_32_210
*4127 FILLER_32_217
*4128 FILLER_32_224
*4129 FILLER_32_231
*4130 FILLER_32_238
*4131 FILLER_32_245
*4132 FILLER_32_252
*4133 FILLER_32_259
*4134 FILLER_32_266
*4135 FILLER_32_273
*4136 FILLER_32_28
*4137 FILLER_32_280
*4138 FILLER_32_287
*4139 FILLER_32_294
*4140 FILLER_32_301
*4141 FILLER_32_308
*4142 FILLER_32_315
*4143 FILLER_32_322
*4144 FILLER_32_329
*4145 FILLER_32_336
*4146 FILLER_32_343
*4147 FILLER_32_35
*4148 FILLER_32_350
*4149 FILLER_32_357
*4150 FILLER_32_364
*4151 FILLER_32_371
*4152 FILLER_32_378
*4153 FILLER_32_385
*4154 FILLER_32_392
*4155 FILLER_32_399
*4156 FILLER_32_406
*4157 FILLER_32_413
*4158 FILLER_32_42
*4159 FILLER_32_420
*4160 FILLER_32_427
*4161 FILLER_32_434
*4162 FILLER_32_441
*4163 FILLER_32_448
*4164 FILLER_32_455
*4165 FILLER_32_462
*4166 FILLER_32_469
*4167 FILLER_32_476
*4168 FILLER_32_483
*4169 FILLER_32_49
*4170 FILLER_32_490
*4171 FILLER_32_497
*4172 FILLER_32_504
*4173 FILLER_32_511
*4174 FILLER_32_518
*4175 FILLER_32_525
*4176 FILLER_32_532
*4177 FILLER_32_539
*4178 FILLER_32_546
*4179 FILLER_32_553
*4180 FILLER_32_56
*4181 FILLER_32_560
*4182 FILLER_32_567
*4183 FILLER_32_574
*4184 FILLER_32_581
*4185 FILLER_32_588
*4186 FILLER_32_595
*4187 FILLER_32_602
*4188 FILLER_32_609
*4189 FILLER_32_616
*4190 FILLER_32_623
*4191 FILLER_32_63
*4192 FILLER_32_630
*4193 FILLER_32_637
*4194 FILLER_32_644
*4195 FILLER_32_651
*4196 FILLER_32_658
*4197 FILLER_32_665
*4198 FILLER_32_672
*4199 FILLER_32_679
*4200 FILLER_32_686
*4201 FILLER_32_693
*4202 FILLER_32_7
*4203 FILLER_32_70
*4204 FILLER_32_700
*4205 FILLER_32_707
*4206 FILLER_32_714
*4207 FILLER_32_721
*4208 FILLER_32_728
*4209 FILLER_32_735
*4210 FILLER_32_742
*4211 FILLER_32_749
*4212 FILLER_32_756
*4213 FILLER_32_763
*4214 FILLER_32_77
*4215 FILLER_32_770
*4216 FILLER_32_777
*4217 FILLER_32_784
*4218 FILLER_32_791
*4219 FILLER_32_798
*4220 FILLER_32_805
*4221 FILLER_32_812
*4222 FILLER_32_819
*4223 FILLER_32_826
*4224 FILLER_32_833
*4225 FILLER_32_84
*4226 FILLER_32_840
*4227 FILLER_32_847
*4228 FILLER_32_854
*4229 FILLER_32_861
*4230 FILLER_32_868
*4231 FILLER_32_875
*4232 FILLER_32_882
*4233 FILLER_32_889
*4234 FILLER_32_896
*4235 FILLER_32_903
*4236 FILLER_32_91
*4237 FILLER_32_910
*4238 FILLER_32_917
*4239 FILLER_32_924
*4240 FILLER_32_931
*4241 FILLER_32_938
*4242 FILLER_32_945
*4243 FILLER_32_952
*4244 FILLER_32_959
*4245 FILLER_32_966
*4246 FILLER_32_973
*4247 FILLER_32_98
*4248 FILLER_32_980
*4249 FILLER_32_987
*4250 FILLER_32_994
*4251 FILLER_33_0
*4252 FILLER_33_1001
*4253 FILLER_33_1008
*4254 FILLER_33_1015
*4255 FILLER_33_1022
*4256 FILLER_33_1029
*4257 FILLER_33_1036
*4258 FILLER_33_1043
*4259 FILLER_33_105
*4260 FILLER_33_1050
*4261 FILLER_33_1057
*4262 FILLER_33_1064
*4263 FILLER_33_1071
*4264 FILLER_33_1078
*4265 FILLER_33_1085
*4266 FILLER_33_1092
*4267 FILLER_33_1099
*4268 FILLER_33_112
*4269 FILLER_33_119
*4270 FILLER_33_126
*4271 FILLER_33_133
*4272 FILLER_33_14
*4273 FILLER_33_140
*4274 FILLER_33_147
*4275 FILLER_33_154
*4276 FILLER_33_161
*4277 FILLER_33_168
*4278 FILLER_33_175
*4279 FILLER_33_182
*4280 FILLER_33_189
*4281 FILLER_33_196
*4282 FILLER_33_203
*4283 FILLER_33_21
*4284 FILLER_33_210
*4285 FILLER_33_217
*4286 FILLER_33_224
*4287 FILLER_33_231
*4288 FILLER_33_238
*4289 FILLER_33_245
*4290 FILLER_33_252
*4291 FILLER_33_259
*4292 FILLER_33_266
*4293 FILLER_33_273
*4294 FILLER_33_28
*4295 FILLER_33_280
*4296 FILLER_33_287
*4297 FILLER_33_294
*4298 FILLER_33_301
*4299 FILLER_33_308
*4300 FILLER_33_315
*4301 FILLER_33_322
*4302 FILLER_33_329
*4303 FILLER_33_336
*4304 FILLER_33_343
*4305 FILLER_33_35
*4306 FILLER_33_350
*4307 FILLER_33_357
*4308 FILLER_33_364
*4309 FILLER_33_371
*4310 FILLER_33_378
*4311 FILLER_33_385
*4312 FILLER_33_392
*4313 FILLER_33_399
*4314 FILLER_33_406
*4315 FILLER_33_413
*4316 FILLER_33_42
*4317 FILLER_33_420
*4318 FILLER_33_427
*4319 FILLER_33_434
*4320 FILLER_33_441
*4321 FILLER_33_448
*4322 FILLER_33_455
*4323 FILLER_33_462
*4324 FILLER_33_469
*4325 FILLER_33_476
*4326 FILLER_33_483
*4327 FILLER_33_49
*4328 FILLER_33_490
*4329 FILLER_33_497
*4330 FILLER_33_504
*4331 FILLER_33_511
*4332 FILLER_33_518
*4333 FILLER_33_525
*4334 FILLER_33_532
*4335 FILLER_33_539
*4336 FILLER_33_546
*4337 FILLER_33_553
*4338 FILLER_33_56
*4339 FILLER_33_560
*4340 FILLER_33_567
*4341 FILLER_33_574
*4342 FILLER_33_581
*4343 FILLER_33_588
*4344 FILLER_33_595
*4345 FILLER_33_602
*4346 FILLER_33_609
*4347 FILLER_33_616
*4348 FILLER_33_623
*4349 FILLER_33_63
*4350 FILLER_33_630
*4351 FILLER_33_637
*4352 FILLER_33_644
*4353 FILLER_33_651
*4354 FILLER_33_658
*4355 FILLER_33_665
*4356 FILLER_33_672
*4357 FILLER_33_679
*4358 FILLER_33_686
*4359 FILLER_33_693
*4360 FILLER_33_7
*4361 FILLER_33_70
*4362 FILLER_33_700
*4363 FILLER_33_707
*4364 FILLER_33_714
*4365 FILLER_33_721
*4366 FILLER_33_728
*4367 FILLER_33_735
*4368 FILLER_33_742
*4369 FILLER_33_749
*4370 FILLER_33_756
*4371 FILLER_33_763
*4372 FILLER_33_77
*4373 FILLER_33_770
*4374 FILLER_33_777
*4375 FILLER_33_784
*4376 FILLER_33_791
*4377 FILLER_33_798
*4378 FILLER_33_805
*4379 FILLER_33_812
*4380 FILLER_33_819
*4381 FILLER_33_826
*4382 FILLER_33_833
*4383 FILLER_33_84
*4384 FILLER_33_840
*4385 FILLER_33_847
*4386 FILLER_33_854
*4387 FILLER_33_861
*4388 FILLER_33_868
*4389 FILLER_33_875
*4390 FILLER_33_882
*4391 FILLER_33_889
*4392 FILLER_33_896
*4393 FILLER_33_903
*4394 FILLER_33_91
*4395 FILLER_33_910
*4396 FILLER_33_917
*4397 FILLER_33_924
*4398 FILLER_33_931
*4399 FILLER_33_938
*4400 FILLER_33_945
*4401 FILLER_33_952
*4402 FILLER_33_959
*4403 FILLER_33_966
*4404 FILLER_33_973
*4405 FILLER_33_98
*4406 FILLER_33_980
*4407 FILLER_33_987
*4408 FILLER_33_994
*4409 FILLER_34_0
*4410 FILLER_34_1001
*4411 FILLER_34_1008
*4412 FILLER_34_1015
*4413 FILLER_34_1022
*4414 FILLER_34_1029
*4415 FILLER_34_1036
*4416 FILLER_34_1043
*4417 FILLER_34_105
*4418 FILLER_34_1050
*4419 FILLER_34_1057
*4420 FILLER_34_1064
*4421 FILLER_34_1071
*4422 FILLER_34_1078
*4423 FILLER_34_1085
*4424 FILLER_34_1092
*4425 FILLER_34_1099
*4426 FILLER_34_112
*4427 FILLER_34_119
*4428 FILLER_34_126
*4429 FILLER_34_133
*4430 FILLER_34_14
*4431 FILLER_34_140
*4432 FILLER_34_147
*4433 FILLER_34_154
*4434 FILLER_34_161
*4435 FILLER_34_168
*4436 FILLER_34_175
*4437 FILLER_34_182
*4438 FILLER_34_189
*4439 FILLER_34_196
*4440 FILLER_34_203
*4441 FILLER_34_21
*4442 FILLER_34_210
*4443 FILLER_34_217
*4444 FILLER_34_224
*4445 FILLER_34_231
*4446 FILLER_34_238
*4447 FILLER_34_245
*4448 FILLER_34_252
*4449 FILLER_34_259
*4450 FILLER_34_266
*4451 FILLER_34_273
*4452 FILLER_34_28
*4453 FILLER_34_280
*4454 FILLER_34_287
*4455 FILLER_34_294
*4456 FILLER_34_301
*4457 FILLER_34_308
*4458 FILLER_34_315
*4459 FILLER_34_322
*4460 FILLER_34_329
*4461 FILLER_34_336
*4462 FILLER_34_343
*4463 FILLER_34_35
*4464 FILLER_34_350
*4465 FILLER_34_357
*4466 FILLER_34_364
*4467 FILLER_34_371
*4468 FILLER_34_378
*4469 FILLER_34_385
*4470 FILLER_34_392
*4471 FILLER_34_399
*4472 FILLER_34_406
*4473 FILLER_34_413
*4474 FILLER_34_42
*4475 FILLER_34_420
*4476 FILLER_34_427
*4477 FILLER_34_434
*4478 FILLER_34_441
*4479 FILLER_34_448
*4480 FILLER_34_455
*4481 FILLER_34_462
*4482 FILLER_34_469
*4483 FILLER_34_476
*4484 FILLER_34_483
*4485 FILLER_34_49
*4486 FILLER_34_490
*4487 FILLER_34_497
*4488 FILLER_34_504
*4489 FILLER_34_511
*4490 FILLER_34_518
*4491 FILLER_34_525
*4492 FILLER_34_532
*4493 FILLER_34_539
*4494 FILLER_34_546
*4495 FILLER_34_553
*4496 FILLER_34_56
*4497 FILLER_34_560
*4498 FILLER_34_567
*4499 FILLER_34_574
*4500 FILLER_34_581
*4501 FILLER_34_588
*4502 FILLER_34_595
*4503 FILLER_34_602
*4504 FILLER_34_609
*4505 FILLER_34_616
*4506 FILLER_34_623
*4507 FILLER_34_63
*4508 FILLER_34_630
*4509 FILLER_34_637
*4510 FILLER_34_644
*4511 FILLER_34_651
*4512 FILLER_34_658
*4513 FILLER_34_665
*4514 FILLER_34_672
*4515 FILLER_34_679
*4516 FILLER_34_686
*4517 FILLER_34_693
*4518 FILLER_34_7
*4519 FILLER_34_70
*4520 FILLER_34_700
*4521 FILLER_34_707
*4522 FILLER_34_714
*4523 FILLER_34_721
*4524 FILLER_34_728
*4525 FILLER_34_735
*4526 FILLER_34_742
*4527 FILLER_34_749
*4528 FILLER_34_756
*4529 FILLER_34_763
*4530 FILLER_34_77
*4531 FILLER_34_770
*4532 FILLER_34_777
*4533 FILLER_34_784
*4534 FILLER_34_791
*4535 FILLER_34_798
*4536 FILLER_34_805
*4537 FILLER_34_812
*4538 FILLER_34_819
*4539 FILLER_34_826
*4540 FILLER_34_833
*4541 FILLER_34_84
*4542 FILLER_34_840
*4543 FILLER_34_847
*4544 FILLER_34_854
*4545 FILLER_34_861
*4546 FILLER_34_868
*4547 FILLER_34_875
*4548 FILLER_34_882
*4549 FILLER_34_889
*4550 FILLER_34_896
*4551 FILLER_34_903
*4552 FILLER_34_91
*4553 FILLER_34_910
*4554 FILLER_34_917
*4555 FILLER_34_924
*4556 FILLER_34_931
*4557 FILLER_34_938
*4558 FILLER_34_945
*4559 FILLER_34_952
*4560 FILLER_34_959
*4561 FILLER_34_966
*4562 FILLER_34_973
*4563 FILLER_34_98
*4564 FILLER_34_980
*4565 FILLER_34_987
*4566 FILLER_34_994
*4567 FILLER_35_0
*4568 FILLER_35_1001
*4569 FILLER_35_1008
*4570 FILLER_35_1015
*4571 FILLER_35_1022
*4572 FILLER_35_1029
*4573 FILLER_35_1036
*4574 FILLER_35_1043
*4575 FILLER_35_105
*4576 FILLER_35_1050
*4577 FILLER_35_1057
*4578 FILLER_35_1064
*4579 FILLER_35_1071
*4580 FILLER_35_1078
*4581 FILLER_35_1085
*4582 FILLER_35_1092
*4583 FILLER_35_1099
*4584 FILLER_35_112
*4585 FILLER_35_119
*4586 FILLER_35_126
*4587 FILLER_35_133
*4588 FILLER_35_14
*4589 FILLER_35_140
*4590 FILLER_35_147
*4591 FILLER_35_154
*4592 FILLER_35_161
*4593 FILLER_35_168
*4594 FILLER_35_175
*4595 FILLER_35_182
*4596 FILLER_35_189
*4597 FILLER_35_196
*4598 FILLER_35_203
*4599 FILLER_35_21
*4600 FILLER_35_210
*4601 FILLER_35_217
*4602 FILLER_35_224
*4603 FILLER_35_231
*4604 FILLER_35_238
*4605 FILLER_35_245
*4606 FILLER_35_252
*4607 FILLER_35_259
*4608 FILLER_35_266
*4609 FILLER_35_273
*4610 FILLER_35_28
*4611 FILLER_35_280
*4612 FILLER_35_287
*4613 FILLER_35_294
*4614 FILLER_35_301
*4615 FILLER_35_308
*4616 FILLER_35_315
*4617 FILLER_35_322
*4618 FILLER_35_329
*4619 FILLER_35_336
*4620 FILLER_35_343
*4621 FILLER_35_35
*4622 FILLER_35_350
*4623 FILLER_35_357
*4624 FILLER_35_364
*4625 FILLER_35_371
*4626 FILLER_35_378
*4627 FILLER_35_385
*4628 FILLER_35_392
*4629 FILLER_35_399
*4630 FILLER_35_406
*4631 FILLER_35_413
*4632 FILLER_35_42
*4633 FILLER_35_420
*4634 FILLER_35_427
*4635 FILLER_35_434
*4636 FILLER_35_441
*4637 FILLER_35_448
*4638 FILLER_35_455
*4639 FILLER_35_462
*4640 FILLER_35_469
*4641 FILLER_35_476
*4642 FILLER_35_483
*4643 FILLER_35_49
*4644 FILLER_35_490
*4645 FILLER_35_497
*4646 FILLER_35_504
*4647 FILLER_35_511
*4648 FILLER_35_518
*4649 FILLER_35_525
*4650 FILLER_35_532
*4651 FILLER_35_539
*4652 FILLER_35_546
*4653 FILLER_35_553
*4654 FILLER_35_56
*4655 FILLER_35_560
*4656 FILLER_35_567
*4657 FILLER_35_574
*4658 FILLER_35_581
*4659 FILLER_35_588
*4660 FILLER_35_595
*4661 FILLER_35_602
*4662 FILLER_35_609
*4663 FILLER_35_616
*4664 FILLER_35_623
*4665 FILLER_35_63
*4666 FILLER_35_630
*4667 FILLER_35_637
*4668 FILLER_35_644
*4669 FILLER_35_651
*4670 FILLER_35_658
*4671 FILLER_35_665
*4672 FILLER_35_672
*4673 FILLER_35_679
*4674 FILLER_35_686
*4675 FILLER_35_693
*4676 FILLER_35_7
*4677 FILLER_35_70
*4678 FILLER_35_700
*4679 FILLER_35_707
*4680 FILLER_35_714
*4681 FILLER_35_721
*4682 FILLER_35_728
*4683 FILLER_35_735
*4684 FILLER_35_742
*4685 FILLER_35_749
*4686 FILLER_35_756
*4687 FILLER_35_763
*4688 FILLER_35_77
*4689 FILLER_35_770
*4690 FILLER_35_777
*4691 FILLER_35_784
*4692 FILLER_35_791
*4693 FILLER_35_798
*4694 FILLER_35_805
*4695 FILLER_35_812
*4696 FILLER_35_819
*4697 FILLER_35_826
*4698 FILLER_35_833
*4699 FILLER_35_84
*4700 FILLER_35_840
*4701 FILLER_35_847
*4702 FILLER_35_854
*4703 FILLER_35_861
*4704 FILLER_35_868
*4705 FILLER_35_875
*4706 FILLER_35_882
*4707 FILLER_35_889
*4708 FILLER_35_896
*4709 FILLER_35_903
*4710 FILLER_35_91
*4711 FILLER_35_910
*4712 FILLER_35_917
*4713 FILLER_35_924
*4714 FILLER_35_931
*4715 FILLER_35_938
*4716 FILLER_35_945
*4717 FILLER_35_952
*4718 FILLER_35_959
*4719 FILLER_35_966
*4720 FILLER_35_973
*4721 FILLER_35_98
*4722 FILLER_35_980
*4723 FILLER_35_987
*4724 FILLER_35_994
*4725 FILLER_36_0
*4726 FILLER_36_1001
*4727 FILLER_36_1008
*4728 FILLER_36_1015
*4729 FILLER_36_1022
*4730 FILLER_36_1029
*4731 FILLER_36_1036
*4732 FILLER_36_1043
*4733 FILLER_36_105
*4734 FILLER_36_1050
*4735 FILLER_36_1057
*4736 FILLER_36_1064
*4737 FILLER_36_1071
*4738 FILLER_36_1078
*4739 FILLER_36_1085
*4740 FILLER_36_1092
*4741 FILLER_36_1099
*4742 FILLER_36_112
*4743 FILLER_36_119
*4744 FILLER_36_126
*4745 FILLER_36_133
*4746 FILLER_36_14
*4747 FILLER_36_140
*4748 FILLER_36_147
*4749 FILLER_36_154
*4750 FILLER_36_161
*4751 FILLER_36_168
*4752 FILLER_36_175
*4753 FILLER_36_182
*4754 FILLER_36_189
*4755 FILLER_36_196
*4756 FILLER_36_203
*4757 FILLER_36_21
*4758 FILLER_36_210
*4759 FILLER_36_217
*4760 FILLER_36_224
*4761 FILLER_36_231
*4762 FILLER_36_238
*4763 FILLER_36_245
*4764 FILLER_36_252
*4765 FILLER_36_259
*4766 FILLER_36_266
*4767 FILLER_36_273
*4768 FILLER_36_28
*4769 FILLER_36_280
*4770 FILLER_36_287
*4771 FILLER_36_294
*4772 FILLER_36_301
*4773 FILLER_36_308
*4774 FILLER_36_315
*4775 FILLER_36_322
*4776 FILLER_36_329
*4777 FILLER_36_336
*4778 FILLER_36_343
*4779 FILLER_36_35
*4780 FILLER_36_350
*4781 FILLER_36_357
*4782 FILLER_36_364
*4783 FILLER_36_371
*4784 FILLER_36_378
*4785 FILLER_36_385
*4786 FILLER_36_392
*4787 FILLER_36_399
*4788 FILLER_36_406
*4789 FILLER_36_413
*4790 FILLER_36_42
*4791 FILLER_36_420
*4792 FILLER_36_427
*4793 FILLER_36_434
*4794 FILLER_36_441
*4795 FILLER_36_448
*4796 FILLER_36_455
*4797 FILLER_36_462
*4798 FILLER_36_469
*4799 FILLER_36_476
*4800 FILLER_36_483
*4801 FILLER_36_49
*4802 FILLER_36_490
*4803 FILLER_36_497
*4804 FILLER_36_504
*4805 FILLER_36_511
*4806 FILLER_36_518
*4807 FILLER_36_525
*4808 FILLER_36_532
*4809 FILLER_36_539
*4810 FILLER_36_546
*4811 FILLER_36_553
*4812 FILLER_36_56
*4813 FILLER_36_560
*4814 FILLER_36_567
*4815 FILLER_36_574
*4816 FILLER_36_581
*4817 FILLER_36_588
*4818 FILLER_36_595
*4819 FILLER_36_602
*4820 FILLER_36_609
*4821 FILLER_36_616
*4822 FILLER_36_623
*4823 FILLER_36_63
*4824 FILLER_36_630
*4825 FILLER_36_637
*4826 FILLER_36_644
*4827 FILLER_36_651
*4828 FILLER_36_658
*4829 FILLER_36_665
*4830 FILLER_36_672
*4831 FILLER_36_679
*4832 FILLER_36_686
*4833 FILLER_36_693
*4834 FILLER_36_7
*4835 FILLER_36_70
*4836 FILLER_36_700
*4837 FILLER_36_707
*4838 FILLER_36_714
*4839 FILLER_36_721
*4840 FILLER_36_728
*4841 FILLER_36_735
*4842 FILLER_36_742
*4843 FILLER_36_749
*4844 FILLER_36_756
*4845 FILLER_36_763
*4846 FILLER_36_77
*4847 FILLER_36_770
*4848 FILLER_36_777
*4849 FILLER_36_784
*4850 FILLER_36_791
*4851 FILLER_36_798
*4852 FILLER_36_805
*4853 FILLER_36_812
*4854 FILLER_36_819
*4855 FILLER_36_826
*4856 FILLER_36_833
*4857 FILLER_36_84
*4858 FILLER_36_840
*4859 FILLER_36_847
*4860 FILLER_36_854
*4861 FILLER_36_861
*4862 FILLER_36_868
*4863 FILLER_36_875
*4864 FILLER_36_882
*4865 FILLER_36_889
*4866 FILLER_36_896
*4867 FILLER_36_903
*4868 FILLER_36_91
*4869 FILLER_36_910
*4870 FILLER_36_917
*4871 FILLER_36_924
*4872 FILLER_36_931
*4873 FILLER_36_938
*4874 FILLER_36_945
*4875 FILLER_36_952
*4876 FILLER_36_959
*4877 FILLER_36_966
*4878 FILLER_36_973
*4879 FILLER_36_98
*4880 FILLER_36_980
*4881 FILLER_36_987
*4882 FILLER_36_994
*4883 FILLER_37_0
*4884 FILLER_37_1001
*4885 FILLER_37_1008
*4886 FILLER_37_1015
*4887 FILLER_37_1022
*4888 FILLER_37_1029
*4889 FILLER_37_1036
*4890 FILLER_37_1043
*4891 FILLER_37_105
*4892 FILLER_37_1050
*4893 FILLER_37_1057
*4894 FILLER_37_1064
*4895 FILLER_37_1071
*4896 FILLER_37_1078
*4897 FILLER_37_1085
*4898 FILLER_37_1092
*4899 FILLER_37_1099
*4900 FILLER_37_112
*4901 FILLER_37_119
*4902 FILLER_37_126
*4903 FILLER_37_133
*4904 FILLER_37_14
*4905 FILLER_37_140
*4906 FILLER_37_147
*4907 FILLER_37_154
*4908 FILLER_37_161
*4909 FILLER_37_168
*4910 FILLER_37_175
*4911 FILLER_37_182
*4912 FILLER_37_189
*4913 FILLER_37_196
*4914 FILLER_37_203
*4915 FILLER_37_21
*4916 FILLER_37_210
*4917 FILLER_37_217
*4918 FILLER_37_224
*4919 FILLER_37_231
*4920 FILLER_37_238
*4921 FILLER_37_245
*4922 FILLER_37_252
*4923 FILLER_37_259
*4924 FILLER_37_266
*4925 FILLER_37_273
*4926 FILLER_37_28
*4927 FILLER_37_280
*4928 FILLER_37_287
*4929 FILLER_37_294
*4930 FILLER_37_301
*4931 FILLER_37_308
*4932 FILLER_37_315
*4933 FILLER_37_322
*4934 FILLER_37_329
*4935 FILLER_37_336
*4936 FILLER_37_343
*4937 FILLER_37_35
*4938 FILLER_37_350
*4939 FILLER_37_357
*4940 FILLER_37_364
*4941 FILLER_37_371
*4942 FILLER_37_378
*4943 FILLER_37_385
*4944 FILLER_37_392
*4945 FILLER_37_399
*4946 FILLER_37_406
*4947 FILLER_37_413
*4948 FILLER_37_42
*4949 FILLER_37_420
*4950 FILLER_37_427
*4951 FILLER_37_434
*4952 FILLER_37_441
*4953 FILLER_37_448
*4954 FILLER_37_455
*4955 FILLER_37_462
*4956 FILLER_37_469
*4957 FILLER_37_476
*4958 FILLER_37_483
*4959 FILLER_37_49
*4960 FILLER_37_490
*4961 FILLER_37_497
*4962 FILLER_37_504
*4963 FILLER_37_511
*4964 FILLER_37_518
*4965 FILLER_37_525
*4966 FILLER_37_532
*4967 FILLER_37_539
*4968 FILLER_37_546
*4969 FILLER_37_553
*4970 FILLER_37_56
*4971 FILLER_37_560
*4972 FILLER_37_567
*4973 FILLER_37_574
*4974 FILLER_37_581
*4975 FILLER_37_588
*4976 FILLER_37_595
*4977 FILLER_37_602
*4978 FILLER_37_609
*4979 FILLER_37_616
*4980 FILLER_37_623
*4981 FILLER_37_63
*4982 FILLER_37_630
*4983 FILLER_37_637
*4984 FILLER_37_644
*4985 FILLER_37_651
*4986 FILLER_37_658
*4987 FILLER_37_665
*4988 FILLER_37_672
*4989 FILLER_37_679
*4990 FILLER_37_686
*4991 FILLER_37_693
*4992 FILLER_37_7
*4993 FILLER_37_70
*4994 FILLER_37_700
*4995 FILLER_37_707
*4996 FILLER_37_714
*4997 FILLER_37_721
*4998 FILLER_37_728
*4999 FILLER_37_735
*5000 FILLER_37_742
*5001 FILLER_37_749
*5002 FILLER_37_756
*5003 FILLER_37_763
*5004 FILLER_37_77
*5005 FILLER_37_770
*5006 FILLER_37_777
*5007 FILLER_37_784
*5008 FILLER_37_791
*5009 FILLER_37_798
*5010 FILLER_37_805
*5011 FILLER_37_812
*5012 FILLER_37_819
*5013 FILLER_37_826
*5014 FILLER_37_833
*5015 FILLER_37_84
*5016 FILLER_37_840
*5017 FILLER_37_847
*5018 FILLER_37_854
*5019 FILLER_37_861
*5020 FILLER_37_868
*5021 FILLER_37_875
*5022 FILLER_37_882
*5023 FILLER_37_889
*5024 FILLER_37_896
*5025 FILLER_37_903
*5026 FILLER_37_91
*5027 FILLER_37_910
*5028 FILLER_37_917
*5029 FILLER_37_924
*5030 FILLER_37_931
*5031 FILLER_37_938
*5032 FILLER_37_945
*5033 FILLER_37_952
*5034 FILLER_37_959
*5035 FILLER_37_966
*5036 FILLER_37_973
*5037 FILLER_37_98
*5038 FILLER_37_980
*5039 FILLER_37_987
*5040 FILLER_37_994
*5041 FILLER_38_0
*5042 FILLER_38_1001
*5043 FILLER_38_1008
*5044 FILLER_38_1015
*5045 FILLER_38_1022
*5046 FILLER_38_1029
*5047 FILLER_38_1036
*5048 FILLER_38_1043
*5049 FILLER_38_105
*5050 FILLER_38_1050
*5051 FILLER_38_1057
*5052 FILLER_38_1064
*5053 FILLER_38_1071
*5054 FILLER_38_1078
*5055 FILLER_38_1085
*5056 FILLER_38_1092
*5057 FILLER_38_1099
*5058 FILLER_38_112
*5059 FILLER_38_119
*5060 FILLER_38_126
*5061 FILLER_38_133
*5062 FILLER_38_14
*5063 FILLER_38_140
*5064 FILLER_38_147
*5065 FILLER_38_154
*5066 FILLER_38_161
*5067 FILLER_38_168
*5068 FILLER_38_175
*5069 FILLER_38_182
*5070 FILLER_38_189
*5071 FILLER_38_196
*5072 FILLER_38_203
*5073 FILLER_38_21
*5074 FILLER_38_210
*5075 FILLER_38_217
*5076 FILLER_38_224
*5077 FILLER_38_231
*5078 FILLER_38_238
*5079 FILLER_38_245
*5080 FILLER_38_252
*5081 FILLER_38_259
*5082 FILLER_38_266
*5083 FILLER_38_273
*5084 FILLER_38_28
*5085 FILLER_38_280
*5086 FILLER_38_287
*5087 FILLER_38_294
*5088 FILLER_38_301
*5089 FILLER_38_308
*5090 FILLER_38_315
*5091 FILLER_38_322
*5092 FILLER_38_329
*5093 FILLER_38_336
*5094 FILLER_38_343
*5095 FILLER_38_35
*5096 FILLER_38_350
*5097 FILLER_38_357
*5098 FILLER_38_364
*5099 FILLER_38_371
*5100 FILLER_38_378
*5101 FILLER_38_385
*5102 FILLER_38_392
*5103 FILLER_38_399
*5104 FILLER_38_406
*5105 FILLER_38_413
*5106 FILLER_38_42
*5107 FILLER_38_420
*5108 FILLER_38_427
*5109 FILLER_38_434
*5110 FILLER_38_441
*5111 FILLER_38_448
*5112 FILLER_38_455
*5113 FILLER_38_462
*5114 FILLER_38_469
*5115 FILLER_38_476
*5116 FILLER_38_483
*5117 FILLER_38_49
*5118 FILLER_38_490
*5119 FILLER_38_497
*5120 FILLER_38_504
*5121 FILLER_38_511
*5122 FILLER_38_518
*5123 FILLER_38_525
*5124 FILLER_38_532
*5125 FILLER_38_539
*5126 FILLER_38_546
*5127 FILLER_38_553
*5128 FILLER_38_56
*5129 FILLER_38_560
*5130 FILLER_38_567
*5131 FILLER_38_574
*5132 FILLER_38_581
*5133 FILLER_38_588
*5134 FILLER_38_595
*5135 FILLER_38_602
*5136 FILLER_38_609
*5137 FILLER_38_616
*5138 FILLER_38_623
*5139 FILLER_38_63
*5140 FILLER_38_630
*5141 FILLER_38_637
*5142 FILLER_38_644
*5143 FILLER_38_651
*5144 FILLER_38_658
*5145 FILLER_38_665
*5146 FILLER_38_672
*5147 FILLER_38_679
*5148 FILLER_38_686
*5149 FILLER_38_693
*5150 FILLER_38_7
*5151 FILLER_38_70
*5152 FILLER_38_700
*5153 FILLER_38_707
*5154 FILLER_38_714
*5155 FILLER_38_721
*5156 FILLER_38_728
*5157 FILLER_38_735
*5158 FILLER_38_742
*5159 FILLER_38_749
*5160 FILLER_38_756
*5161 FILLER_38_763
*5162 FILLER_38_77
*5163 FILLER_38_770
*5164 FILLER_38_777
*5165 FILLER_38_784
*5166 FILLER_38_791
*5167 FILLER_38_798
*5168 FILLER_38_805
*5169 FILLER_38_812
*5170 FILLER_38_819
*5171 FILLER_38_826
*5172 FILLER_38_833
*5173 FILLER_38_84
*5174 FILLER_38_840
*5175 FILLER_38_847
*5176 FILLER_38_854
*5177 FILLER_38_861
*5178 FILLER_38_868
*5179 FILLER_38_875
*5180 FILLER_38_882
*5181 FILLER_38_889
*5182 FILLER_38_896
*5183 FILLER_38_903
*5184 FILLER_38_91
*5185 FILLER_38_910
*5186 FILLER_38_917
*5187 FILLER_38_924
*5188 FILLER_38_931
*5189 FILLER_38_938
*5190 FILLER_38_945
*5191 FILLER_38_952
*5192 FILLER_38_959
*5193 FILLER_38_966
*5194 FILLER_38_973
*5195 FILLER_38_98
*5196 FILLER_38_980
*5197 FILLER_38_987
*5198 FILLER_38_994
*5199 FILLER_39_0
*5200 FILLER_39_1004
*5201 FILLER_39_1011
*5202 FILLER_39_1018
*5203 FILLER_39_1025
*5204 FILLER_39_1032
*5205 FILLER_39_1039
*5206 FILLER_39_1046
*5207 FILLER_39_105
*5208 FILLER_39_1053
*5209 FILLER_39_1060
*5210 FILLER_39_1067
*5211 FILLER_39_1074
*5212 FILLER_39_1081
*5213 FILLER_39_1088
*5214 FILLER_39_1095
*5215 FILLER_39_1099
*5216 FILLER_39_112
*5217 FILLER_39_119
*5218 FILLER_39_126
*5219 FILLER_39_133
*5220 FILLER_39_14
*5221 FILLER_39_140
*5222 FILLER_39_147
*5223 FILLER_39_154
*5224 FILLER_39_161
*5225 FILLER_39_168
*5226 FILLER_39_175
*5227 FILLER_39_182
*5228 FILLER_39_189
*5229 FILLER_39_196
*5230 FILLER_39_203
*5231 FILLER_39_21
*5232 FILLER_39_210
*5233 FILLER_39_217
*5234 FILLER_39_224
*5235 FILLER_39_231
*5236 FILLER_39_238
*5237 FILLER_39_245
*5238 FILLER_39_252
*5239 FILLER_39_259
*5240 FILLER_39_266
*5241 FILLER_39_273
*5242 FILLER_39_28
*5243 FILLER_39_280
*5244 FILLER_39_287
*5245 FILLER_39_294
*5246 FILLER_39_301
*5247 FILLER_39_308
*5248 FILLER_39_315
*5249 FILLER_39_322
*5250 FILLER_39_327
*5251 FILLER_39_334
*5252 FILLER_39_341
*5253 FILLER_39_348
*5254 FILLER_39_35
*5255 FILLER_39_355
*5256 FILLER_39_362
*5257 FILLER_39_369
*5258 FILLER_39_376
*5259 FILLER_39_383
*5260 FILLER_39_390
*5261 FILLER_39_397
*5262 FILLER_39_404
*5263 FILLER_39_411
*5264 FILLER_39_418
*5265 FILLER_39_42
*5266 FILLER_39_425
*5267 FILLER_39_429
*5268 FILLER_39_435
*5269 FILLER_39_442
*5270 FILLER_39_449
*5271 FILLER_39_456
*5272 FILLER_39_463
*5273 FILLER_39_470
*5274 FILLER_39_477
*5275 FILLER_39_484
*5276 FILLER_39_49
*5277 FILLER_39_491
*5278 FILLER_39_498
*5279 FILLER_39_500
*5280 FILLER_39_504
*5281 FILLER_39_511
*5282 FILLER_39_518
*5283 FILLER_39_525
*5284 FILLER_39_532
*5285 FILLER_39_539
*5286 FILLER_39_546
*5287 FILLER_39_553
*5288 FILLER_39_56
*5289 FILLER_39_560
*5290 FILLER_39_567
*5291 FILLER_39_574
*5292 FILLER_39_581
*5293 FILLER_39_588
*5294 FILLER_39_595
*5295 FILLER_39_602
*5296 FILLER_39_609
*5297 FILLER_39_616
*5298 FILLER_39_623
*5299 FILLER_39_63
*5300 FILLER_39_630
*5301 FILLER_39_637
*5302 FILLER_39_644
*5303 FILLER_39_651
*5304 FILLER_39_658
*5305 FILLER_39_665
*5306 FILLER_39_672
*5307 FILLER_39_679
*5308 FILLER_39_686
*5309 FILLER_39_693
*5310 FILLER_39_7
*5311 FILLER_39_70
*5312 FILLER_39_700
*5313 FILLER_39_707
*5314 FILLER_39_714
*5315 FILLER_39_721
*5316 FILLER_39_728
*5317 FILLER_39_735
*5318 FILLER_39_742
*5319 FILLER_39_749
*5320 FILLER_39_756
*5321 FILLER_39_763
*5322 FILLER_39_77
*5323 FILLER_39_770
*5324 FILLER_39_777
*5325 FILLER_39_784
*5326 FILLER_39_791
*5327 FILLER_39_798
*5328 FILLER_39_805
*5329 FILLER_39_812
*5330 FILLER_39_819
*5331 FILLER_39_826
*5332 FILLER_39_833
*5333 FILLER_39_84
*5334 FILLER_39_840
*5335 FILLER_39_847
*5336 FILLER_39_854
*5337 FILLER_39_861
*5338 FILLER_39_868
*5339 FILLER_39_875
*5340 FILLER_39_882
*5341 FILLER_39_892
*5342 FILLER_39_899
*5343 FILLER_39_906
*5344 FILLER_39_91
*5345 FILLER_39_913
*5346 FILLER_39_920
*5347 FILLER_39_927
*5348 FILLER_39_934
*5349 FILLER_39_941
*5350 FILLER_39_948
*5351 FILLER_39_955
*5352 FILLER_39_962
*5353 FILLER_39_969
*5354 FILLER_39_976
*5355 FILLER_39_98
*5356 FILLER_39_983
*5357 FILLER_39_990
*5358 FILLER_39_997
*5359 FILLER_3_0
*5360 FILLER_3_1001
*5361 FILLER_3_1008
*5362 FILLER_3_1015
*5363 FILLER_3_1022
*5364 FILLER_3_1029
*5365 FILLER_3_1036
*5366 FILLER_3_1043
*5367 FILLER_3_105
*5368 FILLER_3_1050
*5369 FILLER_3_1057
*5370 FILLER_3_1064
*5371 FILLER_3_1071
*5372 FILLER_3_1078
*5373 FILLER_3_1085
*5374 FILLER_3_1092
*5375 FILLER_3_1099
*5376 FILLER_3_112
*5377 FILLER_3_119
*5378 FILLER_3_126
*5379 FILLER_3_133
*5380 FILLER_3_14
*5381 FILLER_3_140
*5382 FILLER_3_147
*5383 FILLER_3_154
*5384 FILLER_3_161
*5385 FILLER_3_168
*5386 FILLER_3_175
*5387 FILLER_3_182
*5388 FILLER_3_189
*5389 FILLER_3_196
*5390 FILLER_3_203
*5391 FILLER_3_21
*5392 FILLER_3_210
*5393 FILLER_3_217
*5394 FILLER_3_224
*5395 FILLER_3_231
*5396 FILLER_3_238
*5397 FILLER_3_245
*5398 FILLER_3_252
*5399 FILLER_3_259
*5400 FILLER_3_266
*5401 FILLER_3_273
*5402 FILLER_3_28
*5403 FILLER_3_280
*5404 FILLER_3_287
*5405 FILLER_3_294
*5406 FILLER_3_301
*5407 FILLER_3_308
*5408 FILLER_3_315
*5409 FILLER_3_322
*5410 FILLER_3_329
*5411 FILLER_3_336
*5412 FILLER_3_343
*5413 FILLER_3_35
*5414 FILLER_3_350
*5415 FILLER_3_357
*5416 FILLER_3_364
*5417 FILLER_3_371
*5418 FILLER_3_378
*5419 FILLER_3_385
*5420 FILLER_3_392
*5421 FILLER_3_399
*5422 FILLER_3_406
*5423 FILLER_3_413
*5424 FILLER_3_42
*5425 FILLER_3_420
*5426 FILLER_3_427
*5427 FILLER_3_434
*5428 FILLER_3_441
*5429 FILLER_3_448
*5430 FILLER_3_455
*5431 FILLER_3_462
*5432 FILLER_3_469
*5433 FILLER_3_476
*5434 FILLER_3_483
*5435 FILLER_3_49
*5436 FILLER_3_490
*5437 FILLER_3_497
*5438 FILLER_3_504
*5439 FILLER_3_511
*5440 FILLER_3_518
*5441 FILLER_3_525
*5442 FILLER_3_532
*5443 FILLER_3_539
*5444 FILLER_3_546
*5445 FILLER_3_553
*5446 FILLER_3_56
*5447 FILLER_3_560
*5448 FILLER_3_567
*5449 FILLER_3_574
*5450 FILLER_3_581
*5451 FILLER_3_588
*5452 FILLER_3_595
*5453 FILLER_3_602
*5454 FILLER_3_609
*5455 FILLER_3_616
*5456 FILLER_3_623
*5457 FILLER_3_63
*5458 FILLER_3_630
*5459 FILLER_3_637
*5460 FILLER_3_644
*5461 FILLER_3_651
*5462 FILLER_3_658
*5463 FILLER_3_665
*5464 FILLER_3_672
*5465 FILLER_3_679
*5466 FILLER_3_686
*5467 FILLER_3_693
*5468 FILLER_3_7
*5469 FILLER_3_70
*5470 FILLER_3_700
*5471 FILLER_3_707
*5472 FILLER_3_714
*5473 FILLER_3_721
*5474 FILLER_3_728
*5475 FILLER_3_735
*5476 FILLER_3_742
*5477 FILLER_3_749
*5478 FILLER_3_756
*5479 FILLER_3_763
*5480 FILLER_3_77
*5481 FILLER_3_770
*5482 FILLER_3_777
*5483 FILLER_3_784
*5484 FILLER_3_791
*5485 FILLER_3_798
*5486 FILLER_3_805
*5487 FILLER_3_812
*5488 FILLER_3_819
*5489 FILLER_3_826
*5490 FILLER_3_833
*5491 FILLER_3_84
*5492 FILLER_3_840
*5493 FILLER_3_847
*5494 FILLER_3_854
*5495 FILLER_3_861
*5496 FILLER_3_868
*5497 FILLER_3_875
*5498 FILLER_3_882
*5499 FILLER_3_889
*5500 FILLER_3_896
*5501 FILLER_3_903
*5502 FILLER_3_91
*5503 FILLER_3_910
*5504 FILLER_3_917
*5505 FILLER_3_924
*5506 FILLER_3_931
*5507 FILLER_3_938
*5508 FILLER_3_945
*5509 FILLER_3_952
*5510 FILLER_3_959
*5511 FILLER_3_966
*5512 FILLER_3_973
*5513 FILLER_3_98
*5514 FILLER_3_980
*5515 FILLER_3_987
*5516 FILLER_3_994
*5517 FILLER_40_0
*5518 FILLER_40_1005
*5519 FILLER_40_1012
*5520 FILLER_40_1019
*5521 FILLER_40_1026
*5522 FILLER_40_1033
*5523 FILLER_40_1040
*5524 FILLER_40_1047
*5525 FILLER_40_105
*5526 FILLER_40_1054
*5527 FILLER_40_1061
*5528 FILLER_40_1068
*5529 FILLER_40_1075
*5530 FILLER_40_1082
*5531 FILLER_40_1089
*5532 FILLER_40_1096
*5533 FILLER_40_112
*5534 FILLER_40_119
*5535 FILLER_40_126
*5536 FILLER_40_133
*5537 FILLER_40_14
*5538 FILLER_40_140
*5539 FILLER_40_147
*5540 FILLER_40_154
*5541 FILLER_40_161
*5542 FILLER_40_168
*5543 FILLER_40_175
*5544 FILLER_40_182
*5545 FILLER_40_189
*5546 FILLER_40_196
*5547 FILLER_40_203
*5548 FILLER_40_21
*5549 FILLER_40_210
*5550 FILLER_40_217
*5551 FILLER_40_224
*5552 FILLER_40_231
*5553 FILLER_40_238
*5554 FILLER_40_245
*5555 FILLER_40_252
*5556 FILLER_40_259
*5557 FILLER_40_266
*5558 FILLER_40_273
*5559 FILLER_40_28
*5560 FILLER_40_280
*5561 FILLER_40_287
*5562 FILLER_40_297
*5563 FILLER_40_301
*5564 FILLER_40_35
*5565 FILLER_40_352
*5566 FILLER_40_359
*5567 FILLER_40_366
*5568 FILLER_40_368
*5569 FILLER_40_379
*5570 FILLER_40_386
*5571 FILLER_40_393
*5572 FILLER_40_400
*5573 FILLER_40_407
*5574 FILLER_40_414
*5575 FILLER_40_42
*5576 FILLER_40_439
*5577 FILLER_40_446
*5578 FILLER_40_453
*5579 FILLER_40_463
*5580 FILLER_40_470
*5581 FILLER_40_477
*5582 FILLER_40_484
*5583 FILLER_40_488
*5584 FILLER_40_49
*5585 FILLER_40_526
*5586 FILLER_40_533
*5587 FILLER_40_540
*5588 FILLER_40_547
*5589 FILLER_40_554
*5590 FILLER_40_56
*5591 FILLER_40_561
*5592 FILLER_40_568
*5593 FILLER_40_575
*5594 FILLER_40_582
*5595 FILLER_40_589
*5596 FILLER_40_596
*5597 FILLER_40_603
*5598 FILLER_40_610
*5599 FILLER_40_620
*5600 FILLER_40_627
*5601 FILLER_40_63
*5602 FILLER_40_634
*5603 FILLER_40_641
*5604 FILLER_40_648
*5605 FILLER_40_655
*5606 FILLER_40_662
*5607 FILLER_40_669
*5608 FILLER_40_676
*5609 FILLER_40_683
*5610 FILLER_40_690
*5611 FILLER_40_697
*5612 FILLER_40_7
*5613 FILLER_40_70
*5614 FILLER_40_704
*5615 FILLER_40_711
*5616 FILLER_40_718
*5617 FILLER_40_725
*5618 FILLER_40_732
*5619 FILLER_40_739
*5620 FILLER_40_746
*5621 FILLER_40_753
*5622 FILLER_40_760
*5623 FILLER_40_767
*5624 FILLER_40_77
*5625 FILLER_40_774
*5626 FILLER_40_781
*5627 FILLER_40_788
*5628 FILLER_40_795
*5629 FILLER_40_802
*5630 FILLER_40_809
*5631 FILLER_40_816
*5632 FILLER_40_823
*5633 FILLER_40_830
*5634 FILLER_40_837
*5635 FILLER_40_84
*5636 FILLER_40_841
*5637 FILLER_40_849
*5638 FILLER_40_856
*5639 FILLER_40_863
*5640 FILLER_40_870
*5641 FILLER_40_877
*5642 FILLER_40_884
*5643 FILLER_40_891
*5644 FILLER_40_898
*5645 FILLER_40_91
*5646 FILLER_40_914
*5647 FILLER_40_921
*5648 FILLER_40_928
*5649 FILLER_40_935
*5650 FILLER_40_942
*5651 FILLER_40_949
*5652 FILLER_40_956
*5653 FILLER_40_963
*5654 FILLER_40_970
*5655 FILLER_40_977
*5656 FILLER_40_98
*5657 FILLER_40_984
*5658 FILLER_40_991
*5659 FILLER_40_998
*5660 FILLER_41_0
*5661 FILLER_41_1003
*5662 FILLER_41_1010
*5663 FILLER_41_1017
*5664 FILLER_41_1024
*5665 FILLER_41_1031
*5666 FILLER_41_1038
*5667 FILLER_41_1045
*5668 FILLER_41_105
*5669 FILLER_41_1052
*5670 FILLER_41_1059
*5671 FILLER_41_1066
*5672 FILLER_41_1073
*5673 FILLER_41_1080
*5674 FILLER_41_1087
*5675 FILLER_41_1094
*5676 FILLER_41_112
*5677 FILLER_41_119
*5678 FILLER_41_126
*5679 FILLER_41_133
*5680 FILLER_41_14
*5681 FILLER_41_140
*5682 FILLER_41_147
*5683 FILLER_41_154
*5684 FILLER_41_161
*5685 FILLER_41_168
*5686 FILLER_41_175
*5687 FILLER_41_182
*5688 FILLER_41_189
*5689 FILLER_41_196
*5690 FILLER_41_203
*5691 FILLER_41_21
*5692 FILLER_41_210
*5693 FILLER_41_217
*5694 FILLER_41_224
*5695 FILLER_41_231
*5696 FILLER_41_238
*5697 FILLER_41_245
*5698 FILLER_41_252
*5699 FILLER_41_259
*5700 FILLER_41_266
*5701 FILLER_41_273
*5702 FILLER_41_28
*5703 FILLER_41_280
*5704 FILLER_41_287
*5705 FILLER_41_325
*5706 FILLER_41_345
*5707 FILLER_41_35
*5708 FILLER_41_373
*5709 FILLER_41_375
*5710 FILLER_41_419
*5711 FILLER_41_42
*5712 FILLER_41_445
*5713 FILLER_41_449
*5714 FILLER_41_470
*5715 FILLER_41_477
*5716 FILLER_41_484
*5717 FILLER_41_49
*5718 FILLER_41_491
*5719 FILLER_41_498
*5720 FILLER_41_502
*5721 FILLER_41_507
*5722 FILLER_41_514
*5723 FILLER_41_521
*5724 FILLER_41_535
*5725 FILLER_41_542
*5726 FILLER_41_549
*5727 FILLER_41_556
*5728 FILLER_41_56
*5729 FILLER_41_563
*5730 FILLER_41_570
*5731 FILLER_41_577
*5732 FILLER_41_584
*5733 FILLER_41_591
*5734 FILLER_41_599
*5735 FILLER_41_606
*5736 FILLER_41_610
*5737 FILLER_41_63
*5738 FILLER_41_636
*5739 FILLER_41_643
*5740 FILLER_41_650
*5741 FILLER_41_657
*5742 FILLER_41_664
*5743 FILLER_41_678
*5744 FILLER_41_694
*5745 FILLER_41_7
*5746 FILLER_41_70
*5747 FILLER_41_701
*5748 FILLER_41_708
*5749 FILLER_41_715
*5750 FILLER_41_722
*5751 FILLER_41_729
*5752 FILLER_41_739
*5753 FILLER_41_746
*5754 FILLER_41_753
*5755 FILLER_41_760
*5756 FILLER_41_767
*5757 FILLER_41_77
*5758 FILLER_41_774
*5759 FILLER_41_781
*5760 FILLER_41_788
*5761 FILLER_41_795
*5762 FILLER_41_799
*5763 FILLER_41_812
*5764 FILLER_41_819
*5765 FILLER_41_826
*5766 FILLER_41_830
*5767 FILLER_41_84
*5768 FILLER_41_91
*5769 FILLER_41_919
*5770 FILLER_41_926
*5771 FILLER_41_933
*5772 FILLER_41_940
*5773 FILLER_41_947
*5774 FILLER_41_954
*5775 FILLER_41_961
*5776 FILLER_41_968
*5777 FILLER_41_975
*5778 FILLER_41_98
*5779 FILLER_41_982
*5780 FILLER_41_989
*5781 FILLER_41_996
*5782 FILLER_42_0
*5783 FILLER_42_1002
*5784 FILLER_42_1009
*5785 FILLER_42_1016
*5786 FILLER_42_1023
*5787 FILLER_42_1030
*5788 FILLER_42_1037
*5789 FILLER_42_1044
*5790 FILLER_42_105
*5791 FILLER_42_1051
*5792 FILLER_42_1058
*5793 FILLER_42_1065
*5794 FILLER_42_1072
*5795 FILLER_42_1079
*5796 FILLER_42_1086
*5797 FILLER_42_1093
*5798 FILLER_42_1100
*5799 FILLER_42_112
*5800 FILLER_42_119
*5801 FILLER_42_126
*5802 FILLER_42_133
*5803 FILLER_42_14
*5804 FILLER_42_140
*5805 FILLER_42_147
*5806 FILLER_42_154
*5807 FILLER_42_161
*5808 FILLER_42_168
*5809 FILLER_42_175
*5810 FILLER_42_182
*5811 FILLER_42_189
*5812 FILLER_42_196
*5813 FILLER_42_203
*5814 FILLER_42_21
*5815 FILLER_42_210
*5816 FILLER_42_217
*5817 FILLER_42_224
*5818 FILLER_42_231
*5819 FILLER_42_238
*5820 FILLER_42_245
*5821 FILLER_42_252
*5822 FILLER_42_259
*5823 FILLER_42_266
*5824 FILLER_42_273
*5825 FILLER_42_28
*5826 FILLER_42_280
*5827 FILLER_42_287
*5828 FILLER_42_294
*5829 FILLER_42_317
*5830 FILLER_42_324
*5831 FILLER_42_326
*5832 FILLER_42_340
*5833 FILLER_42_347
*5834 FILLER_42_35
*5835 FILLER_42_351
*5836 FILLER_42_361
*5837 FILLER_42_365
*5838 FILLER_42_385
*5839 FILLER_42_398
*5840 FILLER_42_405
*5841 FILLER_42_409
*5842 FILLER_42_42
*5843 FILLER_42_454
*5844 FILLER_42_456
*5845 FILLER_42_49
*5846 FILLER_42_500
*5847 FILLER_42_502
*5848 FILLER_42_512
*5849 FILLER_42_553
*5850 FILLER_42_56
*5851 FILLER_42_560
*5852 FILLER_42_567
*5853 FILLER_42_63
*5854 FILLER_42_641
*5855 FILLER_42_648
*5856 FILLER_42_655
*5857 FILLER_42_662
*5858 FILLER_42_666
*5859 FILLER_42_697
*5860 FILLER_42_7
*5861 FILLER_42_70
*5862 FILLER_42_704
*5863 FILLER_42_711
*5864 FILLER_42_718
*5865 FILLER_42_722
*5866 FILLER_42_761
*5867 FILLER_42_77
*5868 FILLER_42_788
*5869 FILLER_42_792
*5870 FILLER_42_830
*5871 FILLER_42_832
*5872 FILLER_42_84
*5873 FILLER_42_852
*5874 FILLER_42_869
*5875 FILLER_42_91
*5876 FILLER_42_932
*5877 FILLER_42_939
*5878 FILLER_42_946
*5879 FILLER_42_953
*5880 FILLER_42_960
*5881 FILLER_42_967
*5882 FILLER_42_974
*5883 FILLER_42_98
*5884 FILLER_42_981
*5885 FILLER_42_988
*5886 FILLER_42_995
*5887 FILLER_43_0
*5888 FILLER_43_1002
*5889 FILLER_43_1009
*5890 FILLER_43_1016
*5891 FILLER_43_1023
*5892 FILLER_43_103
*5893 FILLER_43_1030
*5894 FILLER_43_1037
*5895 FILLER_43_1044
*5896 FILLER_43_1051
*5897 FILLER_43_1059
*5898 FILLER_43_1066
*5899 FILLER_43_1073
*5900 FILLER_43_1080
*5901 FILLER_43_1087
*5902 FILLER_43_1094
*5903 FILLER_43_110
*5904 FILLER_43_117
*5905 FILLER_43_124
*5906 FILLER_43_131
*5907 FILLER_43_139
*5908 FILLER_43_14
*5909 FILLER_43_146
*5910 FILLER_43_153
*5911 FILLER_43_160
*5912 FILLER_43_167
*5913 FILLER_43_174
*5914 FILLER_43_181
*5915 FILLER_43_188
*5916 FILLER_43_195
*5917 FILLER_43_202
*5918 FILLER_43_209
*5919 FILLER_43_21
*5920 FILLER_43_216
*5921 FILLER_43_223
*5922 FILLER_43_231
*5923 FILLER_43_238
*5924 FILLER_43_245
*5925 FILLER_43_252
*5926 FILLER_43_259
*5927 FILLER_43_266
*5928 FILLER_43_273
*5929 FILLER_43_28
*5930 FILLER_43_280
*5931 FILLER_43_287
*5932 FILLER_43_35
*5933 FILLER_43_358
*5934 FILLER_43_365
*5935 FILLER_43_399
*5936 FILLER_43_42
*5937 FILLER_43_465
*5938 FILLER_43_47
*5939 FILLER_43_472
*5940 FILLER_43_479
*5941 FILLER_43_481
*5942 FILLER_43_527
*5943 FILLER_43_534
*5944 FILLER_43_54
*5945 FILLER_43_541
*5946 FILLER_43_548
*5947 FILLER_43_555
*5948 FILLER_43_562
*5949 FILLER_43_566
*5950 FILLER_43_604
*5951 FILLER_43_61
*5952 FILLER_43_611
*5953 FILLER_43_618
*5954 FILLER_43_625
*5955 FILLER_43_632
*5956 FILLER_43_639
*5957 FILLER_43_646
*5958 FILLER_43_653
*5959 FILLER_43_660
*5960 FILLER_43_667
*5961 FILLER_43_669
*5962 FILLER_43_679
*5963 FILLER_43_68
*5964 FILLER_43_683
*5965 FILLER_43_697
*5966 FILLER_43_7
*5967 FILLER_43_704
*5968 FILLER_43_711
*5969 FILLER_43_718
*5970 FILLER_43_75
*5971 FILLER_43_750
*5972 FILLER_43_799
*5973 FILLER_43_801
*5974 FILLER_43_82
*5975 FILLER_43_827
*5976 FILLER_43_869
*5977 FILLER_43_879
*5978 FILLER_43_89
*5979 FILLER_43_919
*5980 FILLER_43_926
*5981 FILLER_43_933
*5982 FILLER_43_940
*5983 FILLER_43_947
*5984 FILLER_43_954
*5985 FILLER_43_96
*5986 FILLER_43_961
*5987 FILLER_43_967
*5988 FILLER_43_974
*5989 FILLER_43_981
*5990 FILLER_43_988
*5991 FILLER_43_995
*5992 FILLER_4_0
*5993 FILLER_4_1001
*5994 FILLER_4_1008
*5995 FILLER_4_1015
*5996 FILLER_4_1022
*5997 FILLER_4_1029
*5998 FILLER_4_1036
*5999 FILLER_4_1043
*6000 FILLER_4_105
*6001 FILLER_4_1050
*6002 FILLER_4_1057
*6003 FILLER_4_1064
*6004 FILLER_4_1071
*6005 FILLER_4_1078
*6006 FILLER_4_1085
*6007 FILLER_4_1092
*6008 FILLER_4_1099
*6009 FILLER_4_112
*6010 FILLER_4_119
*6011 FILLER_4_126
*6012 FILLER_4_133
*6013 FILLER_4_14
*6014 FILLER_4_140
*6015 FILLER_4_147
*6016 FILLER_4_154
*6017 FILLER_4_161
*6018 FILLER_4_168
*6019 FILLER_4_175
*6020 FILLER_4_182
*6021 FILLER_4_189
*6022 FILLER_4_196
*6023 FILLER_4_203
*6024 FILLER_4_21
*6025 FILLER_4_210
*6026 FILLER_4_217
*6027 FILLER_4_224
*6028 FILLER_4_231
*6029 FILLER_4_238
*6030 FILLER_4_245
*6031 FILLER_4_252
*6032 FILLER_4_259
*6033 FILLER_4_266
*6034 FILLER_4_273
*6035 FILLER_4_28
*6036 FILLER_4_280
*6037 FILLER_4_287
*6038 FILLER_4_294
*6039 FILLER_4_301
*6040 FILLER_4_308
*6041 FILLER_4_315
*6042 FILLER_4_322
*6043 FILLER_4_329
*6044 FILLER_4_336
*6045 FILLER_4_343
*6046 FILLER_4_35
*6047 FILLER_4_350
*6048 FILLER_4_357
*6049 FILLER_4_364
*6050 FILLER_4_371
*6051 FILLER_4_378
*6052 FILLER_4_385
*6053 FILLER_4_392
*6054 FILLER_4_399
*6055 FILLER_4_406
*6056 FILLER_4_413
*6057 FILLER_4_42
*6058 FILLER_4_420
*6059 FILLER_4_427
*6060 FILLER_4_434
*6061 FILLER_4_441
*6062 FILLER_4_448
*6063 FILLER_4_455
*6064 FILLER_4_462
*6065 FILLER_4_469
*6066 FILLER_4_476
*6067 FILLER_4_483
*6068 FILLER_4_49
*6069 FILLER_4_490
*6070 FILLER_4_497
*6071 FILLER_4_504
*6072 FILLER_4_511
*6073 FILLER_4_518
*6074 FILLER_4_525
*6075 FILLER_4_532
*6076 FILLER_4_539
*6077 FILLER_4_546
*6078 FILLER_4_553
*6079 FILLER_4_56
*6080 FILLER_4_560
*6081 FILLER_4_567
*6082 FILLER_4_574
*6083 FILLER_4_581
*6084 FILLER_4_588
*6085 FILLER_4_595
*6086 FILLER_4_602
*6087 FILLER_4_609
*6088 FILLER_4_616
*6089 FILLER_4_623
*6090 FILLER_4_63
*6091 FILLER_4_630
*6092 FILLER_4_637
*6093 FILLER_4_644
*6094 FILLER_4_651
*6095 FILLER_4_658
*6096 FILLER_4_665
*6097 FILLER_4_672
*6098 FILLER_4_679
*6099 FILLER_4_686
*6100 FILLER_4_693
*6101 FILLER_4_7
*6102 FILLER_4_70
*6103 FILLER_4_700
*6104 FILLER_4_707
*6105 FILLER_4_714
*6106 FILLER_4_721
*6107 FILLER_4_728
*6108 FILLER_4_735
*6109 FILLER_4_742
*6110 FILLER_4_749
*6111 FILLER_4_756
*6112 FILLER_4_763
*6113 FILLER_4_77
*6114 FILLER_4_770
*6115 FILLER_4_777
*6116 FILLER_4_784
*6117 FILLER_4_791
*6118 FILLER_4_798
*6119 FILLER_4_805
*6120 FILLER_4_812
*6121 FILLER_4_819
*6122 FILLER_4_826
*6123 FILLER_4_833
*6124 FILLER_4_84
*6125 FILLER_4_840
*6126 FILLER_4_847
*6127 FILLER_4_854
*6128 FILLER_4_861
*6129 FILLER_4_868
*6130 FILLER_4_875
*6131 FILLER_4_882
*6132 FILLER_4_889
*6133 FILLER_4_896
*6134 FILLER_4_903
*6135 FILLER_4_91
*6136 FILLER_4_910
*6137 FILLER_4_917
*6138 FILLER_4_924
*6139 FILLER_4_931
*6140 FILLER_4_938
*6141 FILLER_4_945
*6142 FILLER_4_952
*6143 FILLER_4_959
*6144 FILLER_4_966
*6145 FILLER_4_973
*6146 FILLER_4_98
*6147 FILLER_4_980
*6148 FILLER_4_987
*6149 FILLER_4_994
*6150 FILLER_5_0
*6151 FILLER_5_1001
*6152 FILLER_5_1008
*6153 FILLER_5_1015
*6154 FILLER_5_1022
*6155 FILLER_5_1029
*6156 FILLER_5_1036
*6157 FILLER_5_1043
*6158 FILLER_5_105
*6159 FILLER_5_1050
*6160 FILLER_5_1057
*6161 FILLER_5_1064
*6162 FILLER_5_1071
*6163 FILLER_5_1078
*6164 FILLER_5_1085
*6165 FILLER_5_1092
*6166 FILLER_5_1096
*6167 FILLER_5_112
*6168 FILLER_5_119
*6169 FILLER_5_126
*6170 FILLER_5_133
*6171 FILLER_5_14
*6172 FILLER_5_140
*6173 FILLER_5_147
*6174 FILLER_5_154
*6175 FILLER_5_161
*6176 FILLER_5_168
*6177 FILLER_5_175
*6178 FILLER_5_182
*6179 FILLER_5_189
*6180 FILLER_5_196
*6181 FILLER_5_203
*6182 FILLER_5_21
*6183 FILLER_5_210
*6184 FILLER_5_217
*6185 FILLER_5_224
*6186 FILLER_5_231
*6187 FILLER_5_238
*6188 FILLER_5_245
*6189 FILLER_5_252
*6190 FILLER_5_259
*6191 FILLER_5_266
*6192 FILLER_5_273
*6193 FILLER_5_28
*6194 FILLER_5_280
*6195 FILLER_5_287
*6196 FILLER_5_294
*6197 FILLER_5_301
*6198 FILLER_5_308
*6199 FILLER_5_315
*6200 FILLER_5_322
*6201 FILLER_5_329
*6202 FILLER_5_336
*6203 FILLER_5_343
*6204 FILLER_5_35
*6205 FILLER_5_350
*6206 FILLER_5_357
*6207 FILLER_5_364
*6208 FILLER_5_371
*6209 FILLER_5_378
*6210 FILLER_5_385
*6211 FILLER_5_392
*6212 FILLER_5_399
*6213 FILLER_5_406
*6214 FILLER_5_413
*6215 FILLER_5_42
*6216 FILLER_5_420
*6217 FILLER_5_427
*6218 FILLER_5_434
*6219 FILLER_5_441
*6220 FILLER_5_448
*6221 FILLER_5_455
*6222 FILLER_5_462
*6223 FILLER_5_469
*6224 FILLER_5_476
*6225 FILLER_5_483
*6226 FILLER_5_49
*6227 FILLER_5_490
*6228 FILLER_5_497
*6229 FILLER_5_504
*6230 FILLER_5_511
*6231 FILLER_5_518
*6232 FILLER_5_525
*6233 FILLER_5_532
*6234 FILLER_5_539
*6235 FILLER_5_546
*6236 FILLER_5_553
*6237 FILLER_5_56
*6238 FILLER_5_560
*6239 FILLER_5_567
*6240 FILLER_5_574
*6241 FILLER_5_581
*6242 FILLER_5_588
*6243 FILLER_5_595
*6244 FILLER_5_602
*6245 FILLER_5_609
*6246 FILLER_5_616
*6247 FILLER_5_623
*6248 FILLER_5_63
*6249 FILLER_5_630
*6250 FILLER_5_637
*6251 FILLER_5_644
*6252 FILLER_5_651
*6253 FILLER_5_658
*6254 FILLER_5_665
*6255 FILLER_5_672
*6256 FILLER_5_679
*6257 FILLER_5_686
*6258 FILLER_5_693
*6259 FILLER_5_7
*6260 FILLER_5_70
*6261 FILLER_5_700
*6262 FILLER_5_707
*6263 FILLER_5_714
*6264 FILLER_5_721
*6265 FILLER_5_728
*6266 FILLER_5_735
*6267 FILLER_5_742
*6268 FILLER_5_749
*6269 FILLER_5_756
*6270 FILLER_5_763
*6271 FILLER_5_77
*6272 FILLER_5_770
*6273 FILLER_5_777
*6274 FILLER_5_784
*6275 FILLER_5_791
*6276 FILLER_5_798
*6277 FILLER_5_805
*6278 FILLER_5_812
*6279 FILLER_5_819
*6280 FILLER_5_826
*6281 FILLER_5_833
*6282 FILLER_5_84
*6283 FILLER_5_840
*6284 FILLER_5_847
*6285 FILLER_5_854
*6286 FILLER_5_861
*6287 FILLER_5_868
*6288 FILLER_5_875
*6289 FILLER_5_882
*6290 FILLER_5_889
*6291 FILLER_5_896
*6292 FILLER_5_903
*6293 FILLER_5_91
*6294 FILLER_5_910
*6295 FILLER_5_917
*6296 FILLER_5_924
*6297 FILLER_5_931
*6298 FILLER_5_938
*6299 FILLER_5_945
*6300 FILLER_5_952
*6301 FILLER_5_959
*6302 FILLER_5_966
*6303 FILLER_5_973
*6304 FILLER_5_98
*6305 FILLER_5_980
*6306 FILLER_5_987
*6307 FILLER_5_994
*6308 FILLER_6_0
*6309 FILLER_6_1001
*6310 FILLER_6_1008
*6311 FILLER_6_1015
*6312 FILLER_6_1022
*6313 FILLER_6_1029
*6314 FILLER_6_1036
*6315 FILLER_6_1043
*6316 FILLER_6_105
*6317 FILLER_6_1050
*6318 FILLER_6_1057
*6319 FILLER_6_1064
*6320 FILLER_6_1071
*6321 FILLER_6_1078
*6322 FILLER_6_1085
*6323 FILLER_6_1092
*6324 FILLER_6_1099
*6325 FILLER_6_112
*6326 FILLER_6_119
*6327 FILLER_6_126
*6328 FILLER_6_133
*6329 FILLER_6_14
*6330 FILLER_6_140
*6331 FILLER_6_147
*6332 FILLER_6_154
*6333 FILLER_6_161
*6334 FILLER_6_168
*6335 FILLER_6_175
*6336 FILLER_6_182
*6337 FILLER_6_189
*6338 FILLER_6_196
*6339 FILLER_6_203
*6340 FILLER_6_21
*6341 FILLER_6_210
*6342 FILLER_6_217
*6343 FILLER_6_224
*6344 FILLER_6_231
*6345 FILLER_6_238
*6346 FILLER_6_245
*6347 FILLER_6_252
*6348 FILLER_6_259
*6349 FILLER_6_266
*6350 FILLER_6_273
*6351 FILLER_6_28
*6352 FILLER_6_280
*6353 FILLER_6_287
*6354 FILLER_6_294
*6355 FILLER_6_301
*6356 FILLER_6_308
*6357 FILLER_6_315
*6358 FILLER_6_322
*6359 FILLER_6_329
*6360 FILLER_6_336
*6361 FILLER_6_343
*6362 FILLER_6_35
*6363 FILLER_6_350
*6364 FILLER_6_357
*6365 FILLER_6_364
*6366 FILLER_6_371
*6367 FILLER_6_378
*6368 FILLER_6_385
*6369 FILLER_6_392
*6370 FILLER_6_399
*6371 FILLER_6_406
*6372 FILLER_6_413
*6373 FILLER_6_42
*6374 FILLER_6_420
*6375 FILLER_6_427
*6376 FILLER_6_434
*6377 FILLER_6_441
*6378 FILLER_6_448
*6379 FILLER_6_455
*6380 FILLER_6_462
*6381 FILLER_6_469
*6382 FILLER_6_476
*6383 FILLER_6_483
*6384 FILLER_6_49
*6385 FILLER_6_490
*6386 FILLER_6_497
*6387 FILLER_6_504
*6388 FILLER_6_511
*6389 FILLER_6_518
*6390 FILLER_6_525
*6391 FILLER_6_532
*6392 FILLER_6_539
*6393 FILLER_6_546
*6394 FILLER_6_553
*6395 FILLER_6_56
*6396 FILLER_6_560
*6397 FILLER_6_567
*6398 FILLER_6_574
*6399 FILLER_6_581
*6400 FILLER_6_588
*6401 FILLER_6_595
*6402 FILLER_6_602
*6403 FILLER_6_609
*6404 FILLER_6_616
*6405 FILLER_6_623
*6406 FILLER_6_63
*6407 FILLER_6_630
*6408 FILLER_6_637
*6409 FILLER_6_644
*6410 FILLER_6_651
*6411 FILLER_6_658
*6412 FILLER_6_665
*6413 FILLER_6_672
*6414 FILLER_6_679
*6415 FILLER_6_686
*6416 FILLER_6_693
*6417 FILLER_6_7
*6418 FILLER_6_70
*6419 FILLER_6_700
*6420 FILLER_6_707
*6421 FILLER_6_714
*6422 FILLER_6_721
*6423 FILLER_6_728
*6424 FILLER_6_735
*6425 FILLER_6_742
*6426 FILLER_6_749
*6427 FILLER_6_756
*6428 FILLER_6_763
*6429 FILLER_6_77
*6430 FILLER_6_770
*6431 FILLER_6_777
*6432 FILLER_6_784
*6433 FILLER_6_791
*6434 FILLER_6_798
*6435 FILLER_6_805
*6436 FILLER_6_812
*6437 FILLER_6_819
*6438 FILLER_6_826
*6439 FILLER_6_833
*6440 FILLER_6_84
*6441 FILLER_6_840
*6442 FILLER_6_847
*6443 FILLER_6_854
*6444 FILLER_6_861
*6445 FILLER_6_868
*6446 FILLER_6_875
*6447 FILLER_6_882
*6448 FILLER_6_889
*6449 FILLER_6_896
*6450 FILLER_6_903
*6451 FILLER_6_91
*6452 FILLER_6_910
*6453 FILLER_6_917
*6454 FILLER_6_924
*6455 FILLER_6_931
*6456 FILLER_6_938
*6457 FILLER_6_945
*6458 FILLER_6_952
*6459 FILLER_6_959
*6460 FILLER_6_966
*6461 FILLER_6_973
*6462 FILLER_6_98
*6463 FILLER_6_980
*6464 FILLER_6_987
*6465 FILLER_6_994
*6466 FILLER_7_0
*6467 FILLER_7_1001
*6468 FILLER_7_1008
*6469 FILLER_7_1015
*6470 FILLER_7_1022
*6471 FILLER_7_1029
*6472 FILLER_7_1036
*6473 FILLER_7_1043
*6474 FILLER_7_105
*6475 FILLER_7_1050
*6476 FILLER_7_1057
*6477 FILLER_7_1064
*6478 FILLER_7_1071
*6479 FILLER_7_1078
*6480 FILLER_7_1085
*6481 FILLER_7_1092
*6482 FILLER_7_1099
*6483 FILLER_7_112
*6484 FILLER_7_119
*6485 FILLER_7_126
*6486 FILLER_7_133
*6487 FILLER_7_14
*6488 FILLER_7_140
*6489 FILLER_7_147
*6490 FILLER_7_154
*6491 FILLER_7_161
*6492 FILLER_7_168
*6493 FILLER_7_175
*6494 FILLER_7_182
*6495 FILLER_7_189
*6496 FILLER_7_196
*6497 FILLER_7_203
*6498 FILLER_7_21
*6499 FILLER_7_210
*6500 FILLER_7_217
*6501 FILLER_7_224
*6502 FILLER_7_231
*6503 FILLER_7_238
*6504 FILLER_7_245
*6505 FILLER_7_252
*6506 FILLER_7_259
*6507 FILLER_7_266
*6508 FILLER_7_273
*6509 FILLER_7_28
*6510 FILLER_7_280
*6511 FILLER_7_287
*6512 FILLER_7_294
*6513 FILLER_7_301
*6514 FILLER_7_308
*6515 FILLER_7_315
*6516 FILLER_7_322
*6517 FILLER_7_329
*6518 FILLER_7_336
*6519 FILLER_7_343
*6520 FILLER_7_35
*6521 FILLER_7_350
*6522 FILLER_7_357
*6523 FILLER_7_364
*6524 FILLER_7_371
*6525 FILLER_7_378
*6526 FILLER_7_385
*6527 FILLER_7_392
*6528 FILLER_7_399
*6529 FILLER_7_406
*6530 FILLER_7_413
*6531 FILLER_7_42
*6532 FILLER_7_420
*6533 FILLER_7_427
*6534 FILLER_7_434
*6535 FILLER_7_441
*6536 FILLER_7_448
*6537 FILLER_7_455
*6538 FILLER_7_462
*6539 FILLER_7_469
*6540 FILLER_7_476
*6541 FILLER_7_483
*6542 FILLER_7_49
*6543 FILLER_7_490
*6544 FILLER_7_497
*6545 FILLER_7_504
*6546 FILLER_7_511
*6547 FILLER_7_518
*6548 FILLER_7_525
*6549 FILLER_7_532
*6550 FILLER_7_539
*6551 FILLER_7_546
*6552 FILLER_7_553
*6553 FILLER_7_56
*6554 FILLER_7_560
*6555 FILLER_7_567
*6556 FILLER_7_574
*6557 FILLER_7_581
*6558 FILLER_7_588
*6559 FILLER_7_595
*6560 FILLER_7_602
*6561 FILLER_7_609
*6562 FILLER_7_616
*6563 FILLER_7_623
*6564 FILLER_7_63
*6565 FILLER_7_630
*6566 FILLER_7_637
*6567 FILLER_7_644
*6568 FILLER_7_651
*6569 FILLER_7_658
*6570 FILLER_7_665
*6571 FILLER_7_672
*6572 FILLER_7_679
*6573 FILLER_7_686
*6574 FILLER_7_693
*6575 FILLER_7_7
*6576 FILLER_7_70
*6577 FILLER_7_700
*6578 FILLER_7_707
*6579 FILLER_7_714
*6580 FILLER_7_721
*6581 FILLER_7_728
*6582 FILLER_7_735
*6583 FILLER_7_742
*6584 FILLER_7_749
*6585 FILLER_7_756
*6586 FILLER_7_763
*6587 FILLER_7_77
*6588 FILLER_7_770
*6589 FILLER_7_777
*6590 FILLER_7_784
*6591 FILLER_7_791
*6592 FILLER_7_798
*6593 FILLER_7_805
*6594 FILLER_7_812
*6595 FILLER_7_819
*6596 FILLER_7_826
*6597 FILLER_7_833
*6598 FILLER_7_84
*6599 FILLER_7_840
*6600 FILLER_7_847
*6601 FILLER_7_854
*6602 FILLER_7_861
*6603 FILLER_7_868
*6604 FILLER_7_875
*6605 FILLER_7_882
*6606 FILLER_7_889
*6607 FILLER_7_896
*6608 FILLER_7_903
*6609 FILLER_7_91
*6610 FILLER_7_910
*6611 FILLER_7_917
*6612 FILLER_7_924
*6613 FILLER_7_931
*6614 FILLER_7_938
*6615 FILLER_7_945
*6616 FILLER_7_952
*6617 FILLER_7_959
*6618 FILLER_7_966
*6619 FILLER_7_973
*6620 FILLER_7_98
*6621 FILLER_7_980
*6622 FILLER_7_987
*6623 FILLER_7_994
*6624 FILLER_8_0
*6625 FILLER_8_1001
*6626 FILLER_8_1008
*6627 FILLER_8_1015
*6628 FILLER_8_1022
*6629 FILLER_8_1029
*6630 FILLER_8_1036
*6631 FILLER_8_1043
*6632 FILLER_8_105
*6633 FILLER_8_1050
*6634 FILLER_8_1057
*6635 FILLER_8_1064
*6636 FILLER_8_1071
*6637 FILLER_8_1078
*6638 FILLER_8_1085
*6639 FILLER_8_1092
*6640 FILLER_8_1099
*6641 FILLER_8_112
*6642 FILLER_8_119
*6643 FILLER_8_126
*6644 FILLER_8_133
*6645 FILLER_8_14
*6646 FILLER_8_140
*6647 FILLER_8_147
*6648 FILLER_8_154
*6649 FILLER_8_161
*6650 FILLER_8_168
*6651 FILLER_8_175
*6652 FILLER_8_182
*6653 FILLER_8_189
*6654 FILLER_8_196
*6655 FILLER_8_203
*6656 FILLER_8_21
*6657 FILLER_8_210
*6658 FILLER_8_217
*6659 FILLER_8_224
*6660 FILLER_8_231
*6661 FILLER_8_238
*6662 FILLER_8_245
*6663 FILLER_8_252
*6664 FILLER_8_259
*6665 FILLER_8_266
*6666 FILLER_8_273
*6667 FILLER_8_28
*6668 FILLER_8_280
*6669 FILLER_8_287
*6670 FILLER_8_294
*6671 FILLER_8_301
*6672 FILLER_8_308
*6673 FILLER_8_315
*6674 FILLER_8_322
*6675 FILLER_8_329
*6676 FILLER_8_336
*6677 FILLER_8_343
*6678 FILLER_8_35
*6679 FILLER_8_350
*6680 FILLER_8_357
*6681 FILLER_8_364
*6682 FILLER_8_371
*6683 FILLER_8_378
*6684 FILLER_8_385
*6685 FILLER_8_392
*6686 FILLER_8_399
*6687 FILLER_8_406
*6688 FILLER_8_413
*6689 FILLER_8_42
*6690 FILLER_8_420
*6691 FILLER_8_427
*6692 FILLER_8_434
*6693 FILLER_8_441
*6694 FILLER_8_448
*6695 FILLER_8_455
*6696 FILLER_8_462
*6697 FILLER_8_469
*6698 FILLER_8_476
*6699 FILLER_8_483
*6700 FILLER_8_49
*6701 FILLER_8_490
*6702 FILLER_8_497
*6703 FILLER_8_504
*6704 FILLER_8_511
*6705 FILLER_8_518
*6706 FILLER_8_525
*6707 FILLER_8_532
*6708 FILLER_8_539
*6709 FILLER_8_546
*6710 FILLER_8_553
*6711 FILLER_8_56
*6712 FILLER_8_560
*6713 FILLER_8_567
*6714 FILLER_8_574
*6715 FILLER_8_581
*6716 FILLER_8_588
*6717 FILLER_8_595
*6718 FILLER_8_602
*6719 FILLER_8_609
*6720 FILLER_8_616
*6721 FILLER_8_623
*6722 FILLER_8_63
*6723 FILLER_8_630
*6724 FILLER_8_637
*6725 FILLER_8_644
*6726 FILLER_8_651
*6727 FILLER_8_658
*6728 FILLER_8_665
*6729 FILLER_8_672
*6730 FILLER_8_679
*6731 FILLER_8_686
*6732 FILLER_8_693
*6733 FILLER_8_7
*6734 FILLER_8_70
*6735 FILLER_8_700
*6736 FILLER_8_707
*6737 FILLER_8_714
*6738 FILLER_8_721
*6739 FILLER_8_728
*6740 FILLER_8_735
*6741 FILLER_8_742
*6742 FILLER_8_749
*6743 FILLER_8_756
*6744 FILLER_8_763
*6745 FILLER_8_77
*6746 FILLER_8_770
*6747 FILLER_8_777
*6748 FILLER_8_784
*6749 FILLER_8_791
*6750 FILLER_8_798
*6751 FILLER_8_805
*6752 FILLER_8_812
*6753 FILLER_8_819
*6754 FILLER_8_826
*6755 FILLER_8_833
*6756 FILLER_8_84
*6757 FILLER_8_840
*6758 FILLER_8_847
*6759 FILLER_8_854
*6760 FILLER_8_861
*6761 FILLER_8_868
*6762 FILLER_8_875
*6763 FILLER_8_882
*6764 FILLER_8_889
*6765 FILLER_8_896
*6766 FILLER_8_903
*6767 FILLER_8_91
*6768 FILLER_8_910
*6769 FILLER_8_917
*6770 FILLER_8_924
*6771 FILLER_8_931
*6772 FILLER_8_938
*6773 FILLER_8_945
*6774 FILLER_8_952
*6775 FILLER_8_959
*6776 FILLER_8_966
*6777 FILLER_8_973
*6778 FILLER_8_98
*6779 FILLER_8_980
*6780 FILLER_8_987
*6781 FILLER_8_994
*6782 FILLER_9_0
*6783 FILLER_9_1001
*6784 FILLER_9_1008
*6785 FILLER_9_1015
*6786 FILLER_9_1022
*6787 FILLER_9_1029
*6788 FILLER_9_1036
*6789 FILLER_9_1043
*6790 FILLER_9_105
*6791 FILLER_9_1050
*6792 FILLER_9_1057
*6793 FILLER_9_1064
*6794 FILLER_9_1071
*6795 FILLER_9_1078
*6796 FILLER_9_1085
*6797 FILLER_9_1092
*6798 FILLER_9_1099
*6799 FILLER_9_112
*6800 FILLER_9_119
*6801 FILLER_9_126
*6802 FILLER_9_133
*6803 FILLER_9_14
*6804 FILLER_9_140
*6805 FILLER_9_147
*6806 FILLER_9_154
*6807 FILLER_9_161
*6808 FILLER_9_168
*6809 FILLER_9_175
*6810 FILLER_9_182
*6811 FILLER_9_189
*6812 FILLER_9_196
*6813 FILLER_9_203
*6814 FILLER_9_21
*6815 FILLER_9_210
*6816 FILLER_9_217
*6817 FILLER_9_224
*6818 FILLER_9_231
*6819 FILLER_9_238
*6820 FILLER_9_245
*6821 FILLER_9_252
*6822 FILLER_9_259
*6823 FILLER_9_266
*6824 FILLER_9_273
*6825 FILLER_9_28
*6826 FILLER_9_280
*6827 FILLER_9_287
*6828 FILLER_9_294
*6829 FILLER_9_301
*6830 FILLER_9_308
*6831 FILLER_9_315
*6832 FILLER_9_322
*6833 FILLER_9_329
*6834 FILLER_9_336
*6835 FILLER_9_343
*6836 FILLER_9_35
*6837 FILLER_9_350
*6838 FILLER_9_357
*6839 FILLER_9_364
*6840 FILLER_9_371
*6841 FILLER_9_378
*6842 FILLER_9_385
*6843 FILLER_9_392
*6844 FILLER_9_399
*6845 FILLER_9_406
*6846 FILLER_9_413
*6847 FILLER_9_42
*6848 FILLER_9_420
*6849 FILLER_9_427
*6850 FILLER_9_434
*6851 FILLER_9_441
*6852 FILLER_9_448
*6853 FILLER_9_455
*6854 FILLER_9_462
*6855 FILLER_9_469
*6856 FILLER_9_476
*6857 FILLER_9_483
*6858 FILLER_9_49
*6859 FILLER_9_490
*6860 FILLER_9_497
*6861 FILLER_9_504
*6862 FILLER_9_511
*6863 FILLER_9_518
*6864 FILLER_9_525
*6865 FILLER_9_532
*6866 FILLER_9_539
*6867 FILLER_9_546
*6868 FILLER_9_553
*6869 FILLER_9_56
*6870 FILLER_9_560
*6871 FILLER_9_567
*6872 FILLER_9_574
*6873 FILLER_9_581
*6874 FILLER_9_588
*6875 FILLER_9_595
*6876 FILLER_9_602
*6877 FILLER_9_609
*6878 FILLER_9_616
*6879 FILLER_9_623
*6880 FILLER_9_63
*6881 FILLER_9_630
*6882 FILLER_9_637
*6883 FILLER_9_644
*6884 FILLER_9_651
*6885 FILLER_9_658
*6886 FILLER_9_665
*6887 FILLER_9_672
*6888 FILLER_9_679
*6889 FILLER_9_686
*6890 FILLER_9_693
*6891 FILLER_9_7
*6892 FILLER_9_70
*6893 FILLER_9_700
*6894 FILLER_9_707
*6895 FILLER_9_714
*6896 FILLER_9_721
*6897 FILLER_9_728
*6898 FILLER_9_735
*6899 FILLER_9_742
*6900 FILLER_9_749
*6901 FILLER_9_756
*6902 FILLER_9_763
*6903 FILLER_9_77
*6904 FILLER_9_770
*6905 FILLER_9_777
*6906 FILLER_9_784
*6907 FILLER_9_791
*6908 FILLER_9_798
*6909 FILLER_9_805
*6910 FILLER_9_812
*6911 FILLER_9_819
*6912 FILLER_9_826
*6913 FILLER_9_833
*6914 FILLER_9_84
*6915 FILLER_9_840
*6916 FILLER_9_847
*6917 FILLER_9_854
*6918 FILLER_9_861
*6919 FILLER_9_868
*6920 FILLER_9_875
*6921 FILLER_9_882
*6922 FILLER_9_889
*6923 FILLER_9_896
*6924 FILLER_9_903
*6925 FILLER_9_91
*6926 FILLER_9_910
*6927 FILLER_9_917
*6928 FILLER_9_924
*6929 FILLER_9_931
*6930 FILLER_9_938
*6931 FILLER_9_945
*6932 FILLER_9_952
*6933 FILLER_9_959
*6934 FILLER_9_966
*6935 FILLER_9_973
*6936 FILLER_9_98
*6937 FILLER_9_980
*6938 FILLER_9_987
*6939 FILLER_9_994
*6940 _049_
*6941 _050_
*6942 _051_
*6943 _052_
*6944 _053_
*6945 _054_
*6946 _055_
*6947 _056_
*6948 _057_
*6949 _058_
*6950 _059_
*6951 _060_
*6952 _061_
*6953 _062_
*6954 _063_
*6955 _064_
*6956 _065_
*6957 _066_
*6958 _067_
*6959 _068_
*6960 _069_
*6961 _070_
*6962 _071_
*6963 _072_
*6964 _073_
*6965 _074_
*6966 _075_
*6967 _076_
*6968 _077_
*6969 _078_
*6970 _079_
*6971 _080_
*6972 _081_
*6973 _082_
*6974 _083_
*6975 _084_
*6976 _085_
*6977 _086_
*6978 _087_
*6979 _088_
*6980 _089_
*6981 _090_
*6982 _091_
*6983 _092_
*6984 _093_
*6985 _094_
*6986 _095_
*6987 _096_
*6988 _097_
*6989 _098_
*6990 _099_
*6991 _100_
*6992 _101_
*6993 _102_
*6994 _103_
*6995 _104_
*6996 _105_
*6997 _106_
*6998 _107_
*6999 _108_
*7000 _109_
*7001 _110_
*7002 _111_
*7003 _112_
*7004 _113_
*7005 _114_
*7006 _115_
*7007 _116_
*7008 _117_
*7009 _118_
*7010 _119_
*7011 _120_
*7012 _121_
*7013 clkbuf_0_clk
*7014 clkbuf_2_0__f_clk
*7015 clkbuf_2_1__f_clk
*7016 clkbuf_2_2__f_clk
*7017 clkbuf_2_3__f_clk
*7018 fanout17
*7019 fanout18
*7020 fanout19
*7021 fanout20
*7022 fanout21
*7023 fanout22
*7024 fanout23
*7025 fanout24
*7026 hold25
*7027 hold26
*7028 hold27
*7029 hold28
*7030 hold29
*7031 hold30
*7032 hold31
*7033 hold32
*7034 hold33
*7035 hold34
*7036 hold35
*7037 hold36
*7038 hold37
*7039 hold38
*7040 hold39
*7041 hold40
*7042 hold41
*7043 hold42
*7044 hold43
*7045 hold44
*7046 hold45
*7047 hold46
*7048 hold47
*7049 hold48
*7050 hold49
*7051 hold50
*7052 hold51
*7053 hold52
*7054 hold53
*7055 hold54
*7056 hold55
*7057 hold56
*7058 hold57
*7059 input1
*7060 input2
*7061 input3
*7062 input4
*7063 output10
*7064 output11
*7065 output12
*7066 output13
*7067 output14
*7068 output15
*7069 output16
*7070 output5
*7071 output6
*7072 output7
*7073 output8
*7074 output9

*PORTS
clk I
data_in I
done_in I
dout[0] O
dout[10] O
dout[11] O
dout[1] O
dout[2] O
dout[3] O
dout[4] O
dout[5] O
dout[6] O
dout[7] O
dout[8] O
dout[9] O
reset I
shift_in I

*D_NET *3 0.0284497
*CONN
*P clk I
*I *7013:A I *D sg13g2_buf_16
*CAP
1 clk 1.78586e-05
2 *7013:A 7.77386e-05
3 *3:14 0.00773283
4 *3:12 0.00765509
5 *3:10 0.00647417
6 *3:8 0.00649203
7 *7013:A *7006:RESET_B 0
8 *3:14 *7006:RESET_B 0
9 *3:14 *99:24 0
*RES
1 clk *3:8 20.1648 
2 *3:8 *3:10 85.1398 
3 *3:10 *3:12 20 
4 *3:12 *3:14 87.7045 
5 *3:14 *7013:A 20.9682 
*END

*D_NET *4 0.000743012
*CONN
*P data_in I
*I *7059:A I *D sg13g2_buf_1
*CAP
1 data_in 0.000371506
2 *7059:A 0.000371506
*RES
1 data_in *7059:A 44.5629 
*END

*D_NET *5 0.000767794
*CONN
*P done_in I
*I *7060:A I *D sg13g2_buf_1
*CAP
1 done_in 0.000383897
2 *7060:A 0.000383897
*RES
1 done_in *7060:A 44.5629 
*END

*D_NET *6 0.00189579
*CONN
*P dout[0] O
*I *7070:X O *D sg13g2_buf_1
*CAP
1 dout[0] 0.000947894
2 *7070:X 0.000947894
*RES
1 *7070:X dout[0] 31.2579 
*END

*D_NET *7 0.00182316
*CONN
*P dout[10] O
*I *7071:X O *D sg13g2_buf_1
*CAP
1 dout[10] 0.000911581
2 *7071:X 0.000911581
*RES
1 *7071:X dout[10] 31.2579 
*END

*D_NET *8 0.00182112
*CONN
*P dout[11] O
*I *7072:X O *D sg13g2_buf_1
*CAP
1 dout[11] 0.000910558
2 *7072:X 0.000910558
3 dout[11] *7072:A 0
*RES
1 *7072:X dout[11] 31.2579 
*END

*D_NET *9 0.00180876
*CONN
*P dout[1] O
*I *7073:X O *D sg13g2_buf_1
*CAP
1 dout[1] 0.00090438
2 *7073:X 0.00090438
*RES
1 *7073:X dout[1] 31.2579 
*END

*D_NET *10 0.00183157
*CONN
*P dout[2] O
*I *7074:X O *D sg13g2_buf_1
*CAP
1 dout[2] 0.000915784
2 *7074:X 0.000915784
3 dout[2] *142:16 0
*RES
1 *7074:X dout[2] 31.2579 
*END

*D_NET *11 0.00177289
*CONN
*P dout[3] O
*I *7063:X O *D sg13g2_buf_1
*CAP
1 dout[3] 0.000886446
2 *7063:X 0.000886446
3 dout[3] *7048:A 0
*RES
1 *7063:X dout[3] 30.8047 
*END

*D_NET *12 0.00224364
*CONN
*P dout[4] O
*I *7064:X O *D sg13g2_buf_1
*CAP
1 dout[4] 0.000808307
2 *7064:X 0.000313513
3 *12:10 0.00112182
4 *12:10 *6990:D 0
*RES
1 *7064:X *12:10 43.0488 
2 *12:10 dout[4] 29.9395 
*END

*D_NET *13 0.00317922
*CONN
*P dout[5] O
*I *7065:X O *D sg13g2_buf_1
*CAP
1 dout[5] 0.0014132
2 *7065:X 0.0014132
3 dout[5] *6941:A0 0
4 dout[5] *6971:A 0
5 dout[5] *7043:A 8.00842e-05
6 dout[5] *7065:A 0
7 dout[5] *71:66 0.000272726
*RES
1 *7065:X dout[5] 35.9547 
*END

*D_NET *14 0.00258077
*CONN
*P dout[6] O
*I *7066:X O *D sg13g2_buf_1
*CAP
1 dout[6] 0.00129038
2 *7066:X 0.00129038
3 dout[6] *6993:CLK 0
4 dout[6] *90:6 0
5 dout[6] *90:16 0
*RES
1 *7066:X dout[6] 34.9603 
*END

*D_NET *15 0.00221325
*CONN
*P dout[7] O
*I *7067:X O *D sg13g2_buf_1
*CAP
1 dout[7] 0.00110662
2 *7067:X 0.00110662
3 dout[7] *7035:A 0
4 dout[7] *7056:A 0
5 dout[7] *7067:A 0
*RES
1 *7067:X dout[7] 33.8947 
*END

*D_NET *16 0.00208604
*CONN
*P dout[8] O
*I *7068:X O *D sg13g2_buf_1
*CAP
1 dout[8] 0.00104302
2 *7068:X 0.00104302
3 dout[8] *6995:RESET_B 0
4 dout[8] *72:59 0
5 dout[8] *92:12 0
*RES
1 *7068:X dout[8] 32.2364 
*END

*D_NET *17 0.00182205
*CONN
*P dout[9] O
*I *7069:X O *D sg13g2_buf_1
*CAP
1 dout[9] 0.000911023
2 *7069:X 0.000911023
3 dout[9] *7034:A 0
*RES
1 *7069:X dout[9] 31.1549 
*END

*D_NET *18 0.00154348
*CONN
*P reset I
*I *7061:A I *D sg13g2_buf_1
*CAP
1 reset 0.000771738
2 *7061:A 0.000771738
*RES
1 reset *7061:A 29.27 
*END

*D_NET *19 0.000592379
*CONN
*P shift_in I
*I *7062:A I *D sg13g2_buf_1
*CAP
1 shift_in 0.00029619
2 *7062:A 0.00029619
*RES
1 shift_in *7062:A 43.6977 
*END

*D_NET *20 0.00116903
*CONN
*I *6993:RESET_B I *D sg13g2_dfrbpq_1
*I *6940:Y O *D sg13g2_inv_1
*CAP
1 *6993:RESET_B 0.000142145
2 *6940:Y 0.000268903
3 *20:10 0.000411048
4 *6993:RESET_B *6993:CLK 0
5 *20:10 *7031:A 0
6 *20:10 *44:8 0.000346938
*RES
1 *6940:Y *20:10 43.1415 
2 *20:10 *6993:RESET_B 41.4008 
*END

*D_NET *21 0.000389036
*CONN
*I *6994:RESET_B I *D sg13g2_dfrbpq_1
*I *6966:Y O *D sg13g2_inv_1
*CAP
1 *6994:RESET_B 0.000186835
2 *6966:Y 0.000186835
3 *6994:RESET_B *6964:S 1.53662e-05
4 *6994:RESET_B *7036:A 0
*RES
1 *6966:Y *6994:RESET_B 42.1218 
*END

*D_NET *22 0.000572425
*CONN
*I *6995:RESET_B I *D sg13g2_dfrbpq_1
*I *6967:Y O *D sg13g2_inv_1
*CAP
1 *6995:RESET_B 0.000286213
2 *6967:Y 0.000286213
3 *6995:RESET_B *72:59 0
4 dout[8] *6995:RESET_B 0
*RES
1 *6967:Y *6995:RESET_B 42.9561 
*END

*D_NET *23 0.00293891
*CONN
*I *6996:RESET_B I *D sg13g2_dfrbpq_1
*I *6968:Y O *D sg13g2_inv_1
*CAP
1 *6996:RESET_B 0.000177968
2 *6968:Y 0.000187995
3 *23:8 0.000365964
4 *6996:RESET_B *6996:D 0
5 *6996:RESET_B *6996:CLK 0
6 *6996:RESET_B *73:26 0
7 *23:8 *94:12 0.00110323
8 *23:8 *102:29 0.00110375
*RES
1 *6968:Y *23:8 45.047 
2 *23:8 *6996:RESET_B 41.6171 
*END

*D_NET *24 0.000653763
*CONN
*I *6997:RESET_B I *D sg13g2_dfrbpq_1
*I *6969:Y O *D sg13g2_inv_1
*CAP
1 *6997:RESET_B 0.000205772
2 *6969:Y 0.000205772
3 *6997:RESET_B *6997:D 0.00024222
*RES
1 *6969:Y *6997:RESET_B 42.4617 
*END

*D_NET *25 0.00184011
*CONN
*I *6998:RESET_B I *D sg13g2_dfrbpq_1
*I *6970:Y O *D sg13g2_inv_1
*CAP
1 *6998:RESET_B 6.73469e-05
2 *6970:Y 0.000314014
3 *25:8 0.000381361
4 *25:8 *6969:A 0
5 *25:8 *7053:A 0
6 *25:8 *73:52 0
7 *25:8 *73:58 0.000235055
8 *25:8 *102:10 0.000660643
9 *25:8 *102:25 0
10 *25:8 *140:29 0.000181695
*RES
1 *6970:Y *25:8 44.5526 
2 *25:8 *6998:RESET_B 40.6695 
*END

*D_NET *26 0.000533448
*CONN
*I *6999:RESET_B I *D sg13g2_dfrbpq_1
*I *6971:Y O *D sg13g2_inv_1
*CAP
1 *6999:RESET_B 0.0001625
2 *6971:Y 0.0001625
3 *6999:RESET_B *6971:A 0.000208447
*RES
1 *6971:Y *6999:RESET_B 41.751 
*END

*D_NET *27 0.000348726
*CONN
*I *7000:RESET_B I *D sg13g2_dfrbpq_1
*I *6972:Y O *D sg13g2_inv_1
*CAP
1 *7000:RESET_B 0.000174363
2 *6972:Y 0.000174363
3 *7000:RESET_B *6972:A 0
*RES
1 *6972:Y *7000:RESET_B 41.751 
*END

*D_NET *28 0.00048226
*CONN
*I *7001:RESET_B I *D sg13g2_dfrbpq_1
*I *6973:Y O *D sg13g2_inv_1
*CAP
1 *7001:RESET_B 0.000153224
2 *6973:Y 0.000153224
3 *7001:RESET_B *7001:D 0
4 *7001:RESET_B *96:20 0.000175811
*RES
1 *6973:Y *7001:RESET_B 41.6171 
*END

*D_NET *29 0.000380354
*CONN
*I *7002:RESET_B I *D sg13g2_dfrbpq_1
*I *6974:Y O *D sg13g2_inv_1
*CAP
1 *7002:RESET_B 0.000190177
2 *6974:Y 0.000190177
3 *7002:RESET_B *7002:D 0
*RES
1 *6974:Y *7002:RESET_B 42.1218 
*END

*D_NET *30 0.000308313
*CONN
*I *7003:RESET_B I *D sg13g2_dfrbpq_1
*I *6975:Y O *D sg13g2_inv_1
*CAP
1 *7003:RESET_B 0.000154156
2 *6975:Y 0.000154156
3 *7003:RESET_B *6991:D 0
*RES
1 *6975:Y *7003:RESET_B 41.9055 
*END

*D_NET *31 0.000308313
*CONN
*I *7004:RESET_B I *D sg13g2_dfrbpq_1
*I *6976:Y O *D sg13g2_inv_1
*CAP
1 *7004:RESET_B 0.000154156
2 *6976:Y 0.000154156
3 *7004:RESET_B *7004:D 0
*RES
1 *6976:Y *7004:RESET_B 41.9055 
*END

*D_NET *32 0.00101501
*CONN
*I *7005:RESET_B I *D sg13g2_dfrbpq_1
*I *6977:Y O *D sg13g2_inv_1
*CAP
1 *7005:RESET_B 0
2 *6977:Y 0.000363077
3 *32:10 0.000363077
4 *32:10 *6953:A0 0
5 *32:10 *6977:A 4.78192e-05
6 *32:10 *56:12 0.000241034
7 *32:10 *94:20 0
8 *32:10 *94:26 0
*RES
1 *6977:Y *32:10 43.2033 
2 *32:10 *7005:RESET_B 40 
*END

*D_NET *33 0.00107842
*CONN
*I *7006:RESET_B I *D sg13g2_dfrbpq_1
*I *6978:Y O *D sg13g2_inv_1
*CAP
1 *7006:RESET_B 0.000320854
2 *6978:Y 0.000320854
3 *7006:RESET_B *99:24 0.000436713
4 *7013:A *7006:RESET_B 0
5 *3:14 *7006:RESET_B 0
*RES
1 *6978:Y *7006:RESET_B 43.6977 
*END

*D_NET *34 0.000386867
*CONN
*I *7007:RESET_B I *D sg13g2_dfrbpq_1
*I *6979:Y O *D sg13g2_inv_1
*CAP
1 *7007:RESET_B 0.000193434
2 *6979:Y 0.000193434
3 *7007:RESET_B *6979:A 0
*RES
1 *6979:Y *7007:RESET_B 41.751 
*END

*D_NET *35 0.000822788
*CONN
*I *7008:RESET_B I *D sg13g2_dfrbpq_1
*I *6980:Y O *D sg13g2_inv_1
*CAP
1 *7008:RESET_B 0.000323481
2 *6980:Y 0.000323481
3 *7008:RESET_B *6950:A1 0
4 *7008:RESET_B *6980:A 0
5 *7008:RESET_B *7008:D 0.000175826
6 *7008:RESET_B *7046:A 0
*RES
1 *6980:Y *7008:RESET_B 43.153 
*END

*D_NET *36 0.000503433
*CONN
*I *7009:RESET_B I *D sg13g2_dfrbpq_1
*I *6981:Y O *D sg13g2_inv_1
*CAP
1 *7009:RESET_B 0.000211532
2 *6981:Y 0.000211532
3 *7009:RESET_B *6996:D 0
4 *7009:RESET_B *7009:D 8.03692e-05
*RES
1 *6981:Y *7009:RESET_B 42.4617 
*END

*D_NET *37 0.000408133
*CONN
*I *7010:RESET_B I *D sg13g2_dfrbpq_1
*I *6982:Y O *D sg13g2_inv_1
*CAP
1 *7010:RESET_B 0.000204067
2 *6982:Y 0.000204067
3 *7010:RESET_B *7010:D 0
4 *7010:RESET_B *68:12 0
*RES
1 *6982:Y *7010:RESET_B 41.9673 
*END

*D_NET *38 0.000391875
*CONN
*I *7011:RESET_B I *D sg13g2_dfrbpq_1
*I *6983:Y O *D sg13g2_inv_1
*CAP
1 *7011:RESET_B 0.000195937
2 *6983:Y 0.000195937
3 *7011:RESET_B *6984:A 0
4 *7011:RESET_B *7011:D 0
*RES
1 *6983:Y *7011:RESET_B 41.9673 
*END

*D_NET *39 0.000330101
*CONN
*I *7012:RESET_B I *D sg13g2_dfrbpq_1
*I *6984:Y O *D sg13g2_inv_1
*CAP
1 *7012:RESET_B 0.000165051
2 *6984:Y 0.000165051
3 *7012:RESET_B *7012:D 0
*RES
1 *6984:Y *7012:RESET_B 41.6171 
*END

*D_NET *40 0.000428347
*CONN
*I *6989:RESET_B I *D sg13g2_dfrbpq_1
*I *6985:Y O *D sg13g2_inv_1
*CAP
1 *6989:RESET_B 0.000214173
2 *6985:Y 0.000214173
3 *6989:RESET_B *6944:A0 0
*RES
1 *6985:Y *6989:RESET_B 42.2145 
*END

*D_NET *41 0.00169157
*CONN
*I *6990:RESET_B I *D sg13g2_dfrbpq_1
*I *6986:Y O *D sg13g2_inv_1
*CAP
1 *6990:RESET_B 0.000352388
2 *6986:Y 0.000469488
3 *41:10 0.000821875
4 *6990:RESET_B *6990:D 0
5 *6990:RESET_B *7049:A 0
6 *41:10 *6955:A1 0
7 *41:10 *6956:A1 0
8 *41:10 *7002:D 4.78192e-05
9 *41:10 *70:21 0
10 *41:10 *128:8 0
*RES
1 *6986:Y *41:10 44.3775 
2 *41:10 *6990:RESET_B 43.5638 
*END

*D_NET *42 0.000889474
*CONN
*I *6991:RESET_B I *D sg13g2_dfrbpq_1
*I *6987:Y O *D sg13g2_inv_1
*CAP
1 *6991:RESET_B 0.000163001
2 *6987:Y 0.000281736
3 *42:8 0.000444737
4 *6991:RESET_B *6991:D 0
5 *42:8 *54:10 0
6 *42:8 *101:32 0
*RES
1 *6987:Y *42:8 43.1934 
2 *42:8 *6991:RESET_B 41.6171 
*END

*D_NET *43 0.000745767
*CONN
*I *6992:RESET_B I *D sg13g2_dfrbpq_1
*I *6988:Y O *D sg13g2_inv_1
*CAP
1 *6992:RESET_B 0.000372883
2 *6988:Y 0.000372883
3 *6992:RESET_B *6941:A0 0
4 *6992:RESET_B *6992:D 0
5 *6992:RESET_B *7027:A 0
*RES
1 *6988:Y *6992:RESET_B 43.9861 
*END

*D_NET *44 0.00130324
*CONN
*I *7031:A I *D sg13g2_dlygate4sd3_1
*I *6965:X O *D sg13g2_mux2_1
*CAP
1 *7031:A 0.000159364
2 *6965:X 9.09127e-05
3 *44:8 0.000250276
4 *44:8 *94:20 0.000455749
5 *20:10 *7031:A 0
6 *20:10 *44:8 0.000346938
*RES
1 *6965:X *44:8 42.0806 
2 *44:8 *7031:A 41.6171 
*END

*D_NET *45 0.00139203
*CONN
*I *7036:A I *D sg13g2_dlygate4sd3_1
*I *6964:X O *D sg13g2_mux2_1
*CAP
1 *7036:A 0.000696016
2 *6964:X 0.000696016
3 *7036:A *6964:S 0
4 *7036:A *6994:D 0
5 *7036:A *7056:A 0
6 *6994:RESET_B *7036:A 0
*RES
1 *6964:X *7036:A 46.9731 
*END

*D_NET *46 0.000678356
*CONN
*I *7029:A I *D sg13g2_dlygate4sd3_1
*I *6963:X O *D sg13g2_mux2_1
*CAP
1 *7029:A 0.000339178
2 *6963:X 0.000339178
3 *7029:A *6995:D 0
4 *7029:A *72:6 0
*RES
1 *6963:X *7029:A 43.6977 
*END

*D_NET *47 0.000956102
*CONN
*I *7038:A I *D sg13g2_dlygate4sd3_1
*I *6962:X O *D sg13g2_mux2_1
*CAP
1 *7038:A 0
2 *6962:X 0.000226656
3 *47:10 0.000226656
4 *47:10 *6949:A1 0
5 *47:10 *115:8 0.000502791
*RES
1 *6962:X *47:10 42.8634 
2 *47:10 *7038:A 40 
*END

*D_NET *48 0.000738063
*CONN
*I *6997:D I *D sg13g2_dfrbpq_1
*I *6961:X O *D sg13g2_mux2_1
*CAP
1 *6997:D 0.000247922
2 *6961:X 0.000247922
3 *6997:D *68:12 0
4 *6997:RESET_B *6997:D 0.00024222
*RES
1 *6961:X *6997:D 42.9561 
*END

*D_NET *49 0.00153383
*CONN
*I *7033:A I *D sg13g2_dlygate4sd3_1
*I *6960:X O *D sg13g2_mux2_1
*CAP
1 *7033:A 0.000629838
2 *6960:X 0.000629838
3 *7033:A *6960:A1 0
4 *7033:A *6997:CLK 6.47768e-05
5 *7033:A *6998:D 0
6 *7033:A *7025:A 0
7 *7033:A *73:52 0.000209374
8 *7033:A *102:25 0
*RES
1 *6960:X *7033:A 46.8598 
*END

*D_NET *50 0.000213748
*CONN
*I *6999:D I *D sg13g2_dfrbpq_1
*I *6959:X O *D sg13g2_mux2_1
*CAP
1 *6999:D 0.000106874
2 *6959:X 0.000106874
*RES
1 *6959:X *6999:D 41.133 
*END

*D_NET *51 0.000196359
*CONN
*I *7000:D I *D sg13g2_dfrbpq_1
*I *6958:X O *D sg13g2_mux2_1
*CAP
1 *7000:D 9.81793e-05
2 *6958:X 9.81793e-05
3 *7000:D *6958:A0 0
*RES
1 *6958:X *7000:D 41.133 
*END

*D_NET *52 0.000242354
*CONN
*I *7001:D I *D sg13g2_dfrbpq_1
*I *6957:X O *D sg13g2_mux2_1
*CAP
1 *7001:D 0.000121177
2 *6957:X 0.000121177
3 *7001:D *6985:A 0
4 *7001:RESET_B *7001:D 0
*RES
1 *6957:X *7001:D 41.3802 
*END

*D_NET *53 0.000826748
*CONN
*I *7002:D I *D sg13g2_dfrbpq_1
*I *6956:X O *D sg13g2_mux2_1
*CAP
1 *7002:D 0.000349422
2 *6956:X 0.000349422
3 *7002:D *6956:A1 0
4 *7002:D *6974:A 8.00842e-05
5 *7002:RESET_B *7002:D 0
6 *41:10 *7002:D 4.78192e-05
*RES
1 *6956:X *7002:D 43.9089 
*END

*D_NET *54 0.000865172
*CONN
*I *7003:D I *D sg13g2_dfrbpq_1
*I *6955:X O *D sg13g2_mux2_1
*CAP
1 *7003:D 0
2 *6955:X 0.000208493
3 *54:10 0.000208493
4 *54:10 *6942:A0 0
5 *54:10 *71:10 0
6 *54:10 *101:32 0.000448185
7 *42:8 *54:10 0
*RES
1 *6955:X *54:10 42.8325 
2 *54:10 *7003:D 40 
*END

*D_NET *55 0.000630296
*CONN
*I *7042:A I *D sg13g2_dlygate4sd3_1
*I *6954:X O *D sg13g2_mux2_1
*CAP
1 *7042:A 0
2 *6954:X 0.000251068
3 *55:10 0.000251068
4 *55:10 *7041:A 0
5 *55:10 *94:32 0
6 *55:10 *98:22 0
7 *55:10 *120:12 0.00012816
*RES
1 *6954:X *55:10 42.8634 
2 *55:10 *7042:A 40 
*END

*D_NET *56 0.00130172
*CONN
*I *7044:A I *D sg13g2_dlygate4sd3_1
*I *6953:X O *D sg13g2_mux2_1
*CAP
1 *7044:A 0
2 *6953:X 0.000442208
3 *56:12 0.000442208
4 *56:12 *6977:A 0
5 *56:12 *7005:D 0.000176274
6 *56:12 *86:12 0
7 *56:12 *94:20 0
8 *56:12 *98:12 0
9 *32:10 *56:12 0.000241034
*RES
1 *6953:X *56:12 44.6968 
2 *56:12 *7044:A 40 
*END

*D_NET *57 0.000200482
*CONN
*I *7006:D I *D sg13g2_dfrbpq_1
*I *6952:X O *D sg13g2_mux2_1
*CAP
1 *7006:D 0.000100241
2 *6952:X 0.000100241
3 *7006:D *136:12 0
*RES
1 *6952:X *7006:D 41.133 
*END

*D_NET *58 0.000195711
*CONN
*I *7007:D I *D sg13g2_dfrbpq_1
*I *6951:X O *D sg13g2_mux2_1
*CAP
1 *7007:D 9.78556e-05
2 *6951:X 9.78556e-05
3 *7007:D *136:23 0
*RES
1 *6951:X *7007:D 41.133 
*END

*D_NET *59 0.000882842
*CONN
*I *7046:A I *D sg13g2_dlygate4sd3_1
*I *6950:X O *D sg13g2_mux2_1
*CAP
1 *7046:A 0.000441421
2 *6950:X 0.000441421
3 *7046:A *7008:CLK 0
4 *7008:RESET_B *7046:A 0
*RES
1 *6950:X *7046:A 44.5938 
*END

*D_NET *60 0.000258905
*CONN
*I *7009:D I *D sg13g2_dfrbpq_1
*I *6949:X O *D sg13g2_mux2_1
*CAP
1 *7009:D 8.92679e-05
2 *6949:X 8.92679e-05
3 *7009:RESET_B *7009:D 8.03692e-05
*RES
1 *6949:X *7009:D 41.133 
*END

*D_NET *61 0.0001913
*CONN
*I *7010:D I *D sg13g2_dfrbpq_1
*I *6948:X O *D sg13g2_mux2_1
*CAP
1 *7010:D 9.56501e-05
2 *6948:X 9.56501e-05
3 *7010:D *6948:S 0
4 *7010:RESET_B *7010:D 0
*RES
1 *6948:X *7010:D 41.133 
*END

*D_NET *62 0.000914499
*CONN
*I *7011:D I *D sg13g2_dfrbpq_1
*I *6946:X O *D sg13g2_mux2_1
*CAP
1 *7011:D 0.000163603
2 *6946:X 0.000293647
3 *62:8 0.00045725
4 *62:8 *96:34 0
5 *62:8 *130:8 0
6 *7011:RESET_B *7011:D 0
*RES
1 *6946:X *62:8 43.3166 
2 *62:8 *7011:D 41.6171 
*END

*D_NET *63 0.000180137
*CONN
*I *7052:A I *D sg13g2_dlygate4sd3_1
*I *6945:X O *D sg13g2_mux2_1
*CAP
1 *7052:A 9.00683e-05
2 *6945:X 9.00683e-05
3 *7052:A *6945:A0 0
4 *7052:A *6946:S 0
5 *7052:A *6984:A 0
*RES
1 *6945:X *7052:A 41.133 
*END

*D_NET *64 0.000534941
*CONN
*I *7048:A I *D sg13g2_dlygate4sd3_1
*I *6944:X O *D sg13g2_mux2_1
*CAP
1 *7048:A 0.000267471
2 *6944:X 0.000267471
3 *7048:A *6944:A0 0
4 dout[3] *7048:A 0
*RES
1 *6944:X *7048:A 42.8681 
*END

*D_NET *65 0.000185991
*CONN
*I *7050:A I *D sg13g2_dlygate4sd3_1
*I *6943:X O *D sg13g2_mux2_1
*CAP
1 *7050:A 9.29953e-05
2 *6943:X 9.29953e-05
3 *7050:A *6943:A0 0
*RES
1 *6943:X *7050:A 41.133 
*END

*D_NET *66 0.00122566
*CONN
*I *7040:A I *D sg13g2_dlygate4sd3_1
*I *6942:X O *D sg13g2_mux2_1
*CAP
1 *7040:A 0
2 *6942:X 0.000457029
3 *66:10 0.000457029
4 *66:10 *74:14 7.55443e-05
5 *66:10 *94:38 0
6 *66:10 *94:44 0
7 *66:10 *135:10 0.000236057
8 *66:10 *135:32 0
*RES
1 *6942:X *66:10 44.9337 
2 *66:10 *7040:A 40 
*END

*D_NET *67 0.000666735
*CONN
*I *7027:A I *D sg13g2_dlygate4sd3_1
*I *6941:X O *D sg13g2_mux2_1
*CAP
1 *7027:A 0.000333368
2 *6941:X 0.000333368
3 *7027:A *6992:D 0
4 *6992:RESET_B *7027:A 0
*RES
1 *6941:X *7027:A 43.7518 
*END

*D_NET *68 0.00441868
*CONN
*I *7018:A I *D sg13g2_buf_1
*I *7019:A I *D sg13g2_buf_1
*I *6947:Y O *D sg13g2_nor2b_1
*CAP
1 *7018:A 0
2 *7019:A 0
3 *6947:Y 0.000925201
4 *68:16 0.00117976
5 *68:12 0.00210496
6 *68:12 *6961:A0 0
7 *68:12 *6961:A1 0.000208758
8 *68:12 *6970:A 0
9 *68:12 *6982:A 0
10 *68:12 *7010:CLK 0
11 *68:16 *73:22 0
12 *6997:D *68:12 0
13 *7010:RESET_B *68:12 0
*RES
1 *6947:Y *68:12 49.6717 
2 *68:12 *68:16 31.4742 
3 *68:16 *7019:A 20 
4 *68:12 *7018:A 40 
*END

*D_NET *69 0.0170011
*CONN
*I *7017:A I *D sg13g2_buf_16
*I *7016:A I *D sg13g2_buf_16
*I *7015:A I *D sg13g2_buf_16
*I *7014:A I *D sg13g2_buf_16
*I *7013:X O *D sg13g2_buf_16
*CAP
1 *7017:A 0
2 *7016:A 0
3 *7015:A 0
4 *7014:A 0.000126791
5 *7013:X 0.000119758
6 *69:63 0.00162188
7 *69:51 0.00375793
8 *69:34 0.000775068
9 *69:21 0.00073382
10 *69:19 8.55431e-05
11 *69:15 0.00347903
12 *69:13 0.00589829
13 *69:6 0.000402972
14 *7014:A *7003:CLK 0
15 *7014:A *80:10 0
16 *69:6 *83:10 0
17 *69:15 *7026:A 0
18 *69:15 *71:53 0
19 *69:15 *71:66 0
20 *69:34 *6991:D 0
21 *69:34 *7003:CLK 0
22 *69:34 *71:53 0
23 *69:34 *80:10 0
24 *69:34 *101:32 0
25 *69:51 *136:12 0
*RES
1 *7013:X *69:6 21.1845 
2 *69:6 *69:13 22.6986 
3 *69:13 *69:15 42.127 
4 *69:15 *69:19 20 
5 *69:19 *69:21 0.9682 
6 *69:21 *69:34 47.107 
7 *69:34 *7014:A 21.03 
8 *69:19 *7015:A 20 
9 *69:13 *69:51 23.8342 
10 *69:51 *7016:A 40 
11 *69:51 *69:63 18.8902 
12 *69:63 *7017:A 40 
*END

*D_NET *70 0.0204657
*CONN
*I *7003:CLK I *D sg13g2_dfrbpq_1
*I *6999:CLK I *D sg13g2_dfrbpq_1
*I *7001:CLK I *D sg13g2_dfrbpq_1
*I *7000:CLK I *D sg13g2_dfrbpq_1
*I *7011:CLK I *D sg13g2_dfrbpq_1
*I *7002:CLK I *D sg13g2_dfrbpq_1
*I *7014:X O *D sg13g2_buf_16
*CAP
1 *7003:CLK 0.000238798
2 *6999:CLK 0
3 *7001:CLK 0
4 *7000:CLK 0.000222044
5 *7011:CLK 0.00063043
6 *7002:CLK 3.4601e-05
7 *7014:X 0
8 *70:58 0.00149977
9 *70:52 0.00197057
10 *70:23 0.00139145
11 *70:21 0.00149716
12 *70:8 0.00147568
13 *70:6 0.000714899
14 *7000:CLK *6957:S 0.000339267
15 *7000:CLK *7051:A 0
16 *7003:CLK *6991:D 0
17 *7011:CLK *6945:A1 0.000395811
18 *7011:CLK *6957:A1 0.00047969
19 *7011:CLK *6958:S 0
20 *7011:CLK *7058:A 0
21 *7011:CLK *130:8 0
22 *7011:CLK *131:8 0.000479865
23 *7011:CLK *138:8 0
24 *70:8 *6942:A1 0
25 *70:8 *6955:A1 0
26 *70:8 *79:10 0
27 *70:8 *96:10 0.00018211
28 *70:8 *96:12 0.0015709
29 *70:8 *101:32 0
30 *70:8 *120:18 0.000662803
31 *70:21 *6955:A1 0
32 *70:21 *6956:A1 0
33 *70:21 *78:8 0.000609969
34 *70:21 *96:12 0
35 *70:21 *96:20 0
36 *70:23 *6957:A1 0.000286526
37 *70:23 *77:8 0
38 *70:52 *94:38 0
39 *70:52 *96:10 0.000213286
40 *70:52 *120:18 0.000714919
41 *70:58 *6991:D 0
42 *70:58 *7020:A 0
43 *70:58 *74:14 0.00386809
44 *70:58 *86:12 0.000987114
45 *70:58 *135:32 0
46 *7014:A *7003:CLK 0
47 *41:10 *70:21 0
48 *69:34 *7003:CLK 0
*RES
1 *7014:X *70:6 40 
2 *70:6 *70:8 8.0134 
3 *70:8 *7002:CLK 40.3193 
4 *70:8 *70:21 9.3215 
5 *70:21 *70:23 6.0358 
6 *70:23 *7011:CLK 48.2606 
7 *70:23 *7000:CLK 42.266 
8 *70:21 *7001:CLK 40 
9 *70:6 *70:52 23.3166 
10 *70:52 *70:58 39.9511 
11 *70:58 *6999:CLK 40 
12 *70:52 *7003:CLK 22.0497 
*END

*D_NET *71 0.0149201
*CONN
*I *6992:CLK I *D sg13g2_dfrbpq_1
*I *7004:CLK I *D sg13g2_dfrbpq_1
*I *6991:CLK I *D sg13g2_dfrbpq_1
*I *6990:CLK I *D sg13g2_dfrbpq_1
*I *6989:CLK I *D sg13g2_dfrbpq_1
*I *7012:CLK I *D sg13g2_dfrbpq_1
*I *7015:X O *D sg13g2_buf_16
*CAP
1 *6992:CLK 0
2 *7004:CLK 0
3 *6991:CLK 0
4 *6990:CLK 0
5 *6989:CLK 0
6 *7012:CLK 0.000626678
7 *7015:X 0.000919985
8 *71:66 0.000746458
9 *71:53 0.00134015
10 *71:12 0.00125802
11 *71:10 0.00142906
12 *71:8 0.00112401
13 *7012:CLK *87:12 0.00131682
14 *7012:CLK *141:8 0.00029279
15 *7012:CLK *141:10 0.000401086
16 *71:8 *101:32 0
17 *71:10 *6955:A1 0
18 *71:10 *7064:A 0.000237975
19 *71:10 *88:8 0.000509383
20 *71:10 *101:47 0
21 *71:12 *87:8 0.000130344
22 *71:12 *87:12 0.00140042
23 *71:12 *101:47 0
24 *71:53 *6991:D 0
25 *71:53 *101:32 0.00141023
26 *71:66 *7043:A 1.54008e-05
27 *71:66 *7065:A 0.000207993
28 *71:66 *101:32 0.00128056
29 dout[5] *71:66 0.000272726
30 *54:10 *71:10 0
31 *69:15 *71:53 0
32 *69:15 *71:66 0
33 *69:34 *71:53 0
*RES
1 *7015:X *71:8 44.0582 
2 *71:8 *71:10 10.2382 
3 *71:10 *71:12 9.991 
4 *71:12 *7012:CLK 49.991 
5 *71:12 *6989:CLK 40 
6 *71:10 *6990:CLK 40 
7 *71:8 *6991:CLK 40 
8 *7015:X *71:53 48.5799 
9 *71:53 *7004:CLK 40 
10 *71:53 *71:66 30.0322 
11 *71:66 *6992:CLK 20 
*END

*D_NET *72 0.0219296
*CONN
*I *6995:CLK I *D sg13g2_dfrbpq_1
*I *7007:CLK I *D sg13g2_dfrbpq_1
*I *6994:CLK I *D sg13g2_dfrbpq_1
*I *7006:CLK I *D sg13g2_dfrbpq_1
*I *6993:CLK I *D sg13g2_dfrbpq_1
*I *7005:CLK I *D sg13g2_dfrbpq_1
*I *7016:X O *D sg13g2_buf_16
*CAP
1 *6995:CLK 0
2 *7007:CLK 0
3 *6994:CLK 0
4 *7006:CLK 0
5 *6993:CLK 0.000220599
6 *7005:CLK 0
7 *7016:X 0
8 *72:59 0.000839681
9 *72:18 0.00152568
10 *72:14 0.00234614
11 *72:12 0.00174365
12 *72:10 0.00208139
13 *72:6 0.00111085
14 *72:4 0.00101291
15 *6993:CLK *6965:A0 0
16 *72:10 *94:12 0
17 *72:10 *95:35 0.00226571
18 *72:10 *102:45 0.00296019
19 *72:10 *124:12 0
20 *72:12 *95:35 0.0030157
21 *72:12 *99:18 0
22 *72:12 *99:24 0
23 *72:12 *102:45 0
24 *72:14 *94:12 0
25 *72:14 *95:35 0.00114208
26 *72:14 *99:24 0
27 *72:14 *107:8 0.000288174
28 *72:14 *137:8 0.000875761
29 *72:18 *6953:A0 0
30 *72:18 *7057:A 0
31 *72:18 *82:19 0
32 *72:18 *94:20 0
33 *72:18 *107:8 0.000501046
34 dout[6] *6993:CLK 0
35 dout[8] *72:59 0
36 *6993:RESET_B *6993:CLK 0
37 *6995:RESET_B *72:59 0
38 *7029:A *72:6 0
*RES
1 *7016:X *72:4 20 
2 *72:4 *72:6 1.6171 
3 *72:6 *72:10 35.9238 
4 *72:10 *72:12 13.9462 
5 *72:12 *72:14 9.2494 
6 *72:14 *72:18 32.7102 
7 *72:18 *7005:CLK 20 
8 *72:14 *6993:CLK 42.178 
9 *72:12 *7006:CLK 40 
10 *72:10 *6994:CLK 40 
11 *72:6 *7007:CLK 20 
12 *72:4 *72:59 48.0237 
13 *72:59 *6995:CLK 20 
*END

*D_NET *73 0.00969363
*CONN
*I *6996:CLK I *D sg13g2_dfrbpq_1
*I *6997:CLK I *D sg13g2_dfrbpq_1
*I *6998:CLK I *D sg13g2_dfrbpq_1
*I *7010:CLK I *D sg13g2_dfrbpq_1
*I *7009:CLK I *D sg13g2_dfrbpq_1
*I *7008:CLK I *D sg13g2_dfrbpq_1
*I *7017:X O *D sg13g2_buf_16
*CAP
1 *6996:CLK 7.0665e-05
2 *6997:CLK 0.000232768
3 *6998:CLK 0
4 *7010:CLK 5.0809e-05
5 *7009:CLK 5.47329e-05
6 *7008:CLK 0.000257234
7 *7017:X 0.00114557
8 *73:58 0.000229925
9 *73:52 0.000923752
10 *73:37 0.00126087
11 *73:26 0.00112174
12 *73:24 0.000388669
13 *73:22 0.00088834
14 *7009:CLK *7022:A 0
15 *7010:CLK *6960:A1 0
16 *73:22 *94:12 0
17 *73:26 *7022:A 0
18 *73:26 *7037:A 0
19 *73:26 *99:8 0
20 *73:37 *6948:A0 0
21 *73:37 *6949:A0 0.0010356
22 *73:37 *6961:A1 0.000395396
23 *73:37 *6969:A 0
24 *73:37 *99:10 0
25 *73:37 *99:67 0
26 *73:37 *99:78 0
27 *73:37 *112:10 0.000182109
28 *73:52 *6948:A0 0
29 *73:52 *6998:D 0.000177032
30 *73:52 *102:10 0
31 *73:52 *110:8 0
32 *73:58 *102:10 0
33 *73:58 *140:29 0.000769196
34 *6996:RESET_B *6996:CLK 0
35 *6996:RESET_B *73:26 0
36 *7033:A *6997:CLK 6.47768e-05
37 *7033:A *73:52 0.000209374
38 *7046:A *7008:CLK 0
39 *25:8 *73:52 0
40 *25:8 *73:58 0.000235055
41 *68:12 *7010:CLK 0
42 *68:16 *73:22 0
*RES
1 *7017:X *7008:CLK 42.6471 
2 *7017:X *73:22 47.7662 
3 *73:22 *73:24 20 
4 *73:24 *73:26 2.9149 
5 *73:26 *7009:CLK 20.5356 
6 *73:26 *73:37 29.2494 
7 *73:37 *7010:CLK 40.5356 
8 *73:37 *73:52 24.4702 
9 *73:52 *73:58 43.5638 
10 *73:58 *6998:CLK 20 
11 *73:52 *6997:CLK 22.6162 
12 *73:24 *6996:CLK 20.7519 
*END

*D_NET *74 0.010109
*CONN
*I *7055:A I *D sg13g2_dlygate4sd3_1
*I *6999:Q O *D sg13g2_dfrbpq_1
*CAP
1 *7055:A 0
2 *6999:Q 0
3 *74:14 0.00133338
4 *74:6 0.00133338
5 *74:14 *86:12 0
6 *74:14 *94:26 0.00144672
7 *74:14 *94:32 0.00205192
8 *74:14 *94:38 0
9 *74:14 *96:10 0
10 *74:14 *98:12 0
11 *74:14 *98:14 0
12 *74:14 *135:32 0
13 *66:10 *74:14 7.55443e-05
14 *70:58 *74:14 0.00386809
*RES
1 *6999:Q *74:6 40 
2 *74:6 *74:14 44.2565 
3 *74:14 *7055:A 20 
*END

*D_NET *75 0.00054975
*CONN
*I *7034:A I *D sg13g2_dlygate4sd3_1
*I *7009:Q O *D sg13g2_dfrbpq_1
*CAP
1 *7034:A 0.000218601
2 *7009:Q 0.000218601
3 *7034:A *6948:S 0
4 *7034:A *6968:A 0.000112548
5 *7034:A *7022:A 0
6 dout[9] *7034:A 0
*RES
1 *7009:Q *7034:A 42.3484 
*END

*D_NET *76 0.000541749
*CONN
*I *7032:A I *D sg13g2_dlygate4sd3_1
*I *7010:Q O *D sg13g2_dfrbpq_1
*CAP
1 *7032:A 3.77166e-05
2 *7010:Q 0.000169034
3 *76:8 0.000206751
4 *76:8 *86:10 0
5 *76:8 *102:10 0
6 *76:8 *110:8 0.000128248
*RES
1 *7010:Q *76:8 42.3278 
2 *76:8 *7032:A 40.3193 
*END

*D_NET *77 0.00105839
*CONN
*I *7051:A I *D sg13g2_dlygate4sd3_1
*I *7000:Q O *D sg13g2_dfrbpq_1
*CAP
1 *7051:A 0.000182523
2 *7000:Q 0.000346672
3 *77:8 0.000529195
4 *7051:A *7058:A 0
5 *77:8 *6958:S 0
6 *7000:CLK *7051:A 0
7 *70:23 *77:8 0
*RES
1 *7000:Q *77:8 43.5638 
2 *77:8 *7051:A 41.6171 
*END

*D_NET *78 0.00191786
*CONN
*I *7047:A I *D sg13g2_dlygate4sd3_1
*I *7001:Q O *D sg13g2_dfrbpq_1
*CAP
1 *7047:A 0.000241904
2 *7001:Q 0.000106446
3 *78:8 0.00034835
4 *78:8 *96:20 0.000611188
5 *70:21 *78:8 0.000609969
*RES
1 *7001:Q *78:8 42.8222 
2 *78:8 *7047:A 42.3999 
*END

*D_NET *79 0.000989748
*CONN
*I *7049:A I *D sg13g2_dlygate4sd3_1
*I *7002:Q O *D sg13g2_dfrbpq_1
*CAP
1 *7049:A 0.000168868
2 *7002:Q 0.000326006
3 *79:10 0.000494874
4 *79:10 *6942:S 0
5 *79:10 *6955:A1 0
6 *6990:RESET_B *7049:A 0
7 *70:8 *79:10 0
*RES
1 *7002:Q *79:10 43.1415 
2 *79:10 *7049:A 41.6171 
*END

*D_NET *80 0.00461494
*CONN
*I *7041:A I *D sg13g2_dlygate4sd3_1
*I *6942:A1 I *D sg13g2_mux2_1
*I *7003:Q O *D sg13g2_dfrbpq_1
*CAP
1 *7041:A 0.000324318
2 *6942:A1 0.000770849
3 *7003:Q 0.000138071
4 *80:10 0.00123324
5 *6942:A1 *6987:A 0
6 *6942:A1 *98:24 0
7 *6942:A1 *101:32 0
8 *6942:A1 *120:18 0.00199466
9 *7041:A *6954:A0 4.77425e-05
10 *7041:A *6954:S 0
11 *7041:A *94:32 0
12 *7041:A *98:24 0
13 *7041:A *120:12 0
14 *7041:A *120:18 0.000106064
15 *80:10 *6954:A0 0
16 *7014:A *80:10 0
17 *55:10 *7041:A 0
18 *69:34 *80:10 0
19 *70:8 *6942:A1 0
*RES
1 *7003:Q *80:10 41.2875 
2 *80:10 *6942:A1 49.4966 
3 *80:10 *7041:A 43.0797 
*END

*D_NET *81 0.00500976
*CONN
*I *7043:A I *D sg13g2_dlygate4sd3_1
*I *6941:A1 I *D sg13g2_mux2_1
*I *6954:A0 I *D sg13g2_mux2_1
*I *7004:Q O *D sg13g2_dfrbpq_1
*CAP
1 *7043:A 0.000248091
2 *6941:A1 3.38934e-05
3 *6954:A0 0.000688768
4 *7004:Q 0
5 *81:19 0.000419387
6 *81:6 0.000826171
7 *6954:A0 *6976:A 0
8 *6954:A0 *7004:D 0
9 *6954:A0 *98:22 0
10 *6954:A0 *101:32 0.00162352
11 *7043:A *101:20 0.000343207
12 *7043:A *101:32 0.000235075
13 *81:19 *98:16 0
14 *81:19 *98:22 0
15 *81:19 *101:32 0.000448421
16 dout[5] *7043:A 8.00842e-05
17 *7041:A *6954:A0 4.77425e-05
18 *71:66 *7043:A 1.54008e-05
19 *80:10 *6954:A0 0
*RES
1 *7004:Q *81:6 40 
2 *81:6 *6954:A0 48.9198 
3 *81:6 *81:19 2.0806 
4 *81:19 *6941:A1 40.3193 
5 *81:19 *7043:A 43.1106 
*END

*D_NET *82 0.00646961
*CONN
*I *7057:A I *D sg13g2_dlygate4sd3_1
*I *6965:A1 I *D sg13g2_mux2_1
*I *6953:A0 I *D sg13g2_mux2_1
*I *7005:Q O *D sg13g2_dfrbpq_1
*CAP
1 *7057:A 0.000231103
2 *6965:A1 3.35604e-05
3 *6953:A0 0.000641173
4 *7005:Q 0
5 *82:19 0.000849293
6 *82:6 0.0012258
7 *6953:A0 *94:20 0
8 *6953:A0 *101:20 0.0016916
9 *6953:A0 *122:8 7.51811e-05
10 *7057:A *101:20 0.000214719
11 *82:19 *101:20 0.00150718
12 *32:10 *6953:A0 0
13 *72:18 *6953:A0 0
14 *72:18 *7057:A 0
15 *72:18 *82:19 0
*RES
1 *7005:Q *82:6 40 
2 *82:6 *6953:A0 48.3018 
3 *82:6 *82:19 7.0246 
4 *82:19 *6965:A1 40.3193 
5 *82:19 *7057:A 42.369 
*END

*D_NET *83 0.00321142
*CONN
*I *7056:A I *D sg13g2_dlygate4sd3_1
*I *6964:A1 I *D sg13g2_mux2_1
*I *7006:Q O *D sg13g2_dfrbpq_1
*CAP
1 *7056:A 0.000779949
2 *6964:A1 3.09169e-05
3 *7006:Q 0.000794844
4 *83:10 0.00160571
5 *6964:A1 *6964:S 0
6 *7056:A *7035:A 0
7 *7056:A *99:18 0
8 *7056:A *113:8 0
9 *83:10 *99:24 0
10 dout[7] *7056:A 0
11 *7036:A *7056:A 0
12 *69:6 *83:10 0
*RES
1 *7006:Q *83:10 48.9816 
2 *83:10 *6964:A1 40.3193 
3 *83:10 *7056:A 46.8804 
*END

*D_NET *84 0.00250471
*CONN
*I *7045:A I *D sg13g2_dlygate4sd3_1
*I *6963:A1 I *D sg13g2_mux2_1
*I *7007:Q O *D sg13g2_dfrbpq_1
*CAP
1 *7045:A 0.000307966
2 *6963:A1 3.43728e-05
3 *7007:Q 6.00494e-05
4 *84:8 0.000402388
5 *7045:A *99:12 0.000345126
6 *7045:A *99:14 0.000430561
7 *7045:A *102:45 0.000235556
8 *7045:A *105:10 0
9 *84:8 *99:14 0.000346247
10 *84:8 *102:45 0.000342449
*RES
1 *7007:Q *84:8 41.5862 
2 *84:8 *6963:A1 40.3193 
3 *84:8 *7045:A 44.0994 
*END

*D_NET *85 0.0030999
*CONN
*I *6962:A1 I *D sg13g2_mux2_1
*I *7054:A I *D sg13g2_dlygate4sd3_1
*I *6950:A0 I *D sg13g2_mux2_1
*I *7008:Q O *D sg13g2_dfrbpq_1
*CAP
1 *6962:A1 0.000136993
2 *7054:A 0.000235087
3 *6950:A0 0.000901733
4 *7008:Q 0
5 *85:21 0.000538764
6 *85:6 0.00106842
7 *6950:A0 *6950:A1 3.1684e-05
8 *6950:A0 *99:10 0
9 *6950:A0 *99:12 0
10 *6950:A0 *102:35 0
11 *6962:A1 *99:10 0
12 *6962:A1 *102:29 0
13 *6962:A1 *115:8 7.51285e-05
14 *7054:A *6949:A1 0
15 *7054:A *6962:S 0.000112092
16 *7054:A *6996:D 0
17 *7054:A *95:12 0
18 *85:21 *99:10 0
*RES
1 *7008:Q *85:6 40 
2 *85:6 *6950:A0 47.9773 
3 *85:6 *85:21 1.6583 
4 *85:21 *7054:A 42.266 
5 *85:21 *6962:A1 41.339 
*END

*D_NET *86 0.0374909
*CONN
*I *6959:A1 I *D sg13g2_mux2_1
*I *7059:X O *D sg13g2_buf_1
*CAP
1 *6959:A1 0
2 *7059:X 0
3 *86:12 0.00627737
4 *86:10 0.00999699
5 *86:6 0.00371962
6 *86:10 *7024:A 0
7 *86:10 *7025:A 0
8 *86:12 *6948:A0 0
9 *86:12 *6982:A 0.000929864
10 *86:12 *7024:A 0
11 *86:12 *100:8 0.000288174
12 *86:12 *100:10 0.0143614
13 *86:12 *100:30 0.000930365
14 *86:12 *101:10 0
15 *86:12 *101:12 0
16 *86:12 *110:8 0
17 *86:12 *113:8 0
18 *56:12 *86:12 0
19 *70:58 *86:12 0.000987114
20 *74:14 *86:12 0
21 *76:8 *86:10 0
*RES
1 *7059:X *86:6 40 
2 *86:6 *86:10 48.6263 
3 *86:10 *86:12 100.961 
4 *86:12 *6959:A1 40 
*END

*D_NET *87 0.00636909
*CONN
*I *6943:A0 I *D sg13g2_mux2_1
*I *7063:A I *D sg13g2_buf_1
*I *6990:Q O *D sg13g2_dfrbpq_1
*CAP
1 *6943:A0 0.000188845
2 *7063:A 0
3 *6990:Q 3.21473e-05
4 *87:12 0.000547927
5 *87:8 0.000768919
6 *87:8 *101:47 0
7 *87:12 *101:47 0
8 *87:12 *101:49 0
9 *87:12 *142:8 0.00136688
10 *87:12 *142:16 0.000616789
11 *7012:CLK *87:12 0.00131682
12 *7050:A *6943:A0 0
13 *71:12 *87:8 0.000130344
14 *71:12 *87:12 0.00140042
*RES
1 *6990:Q *87:8 40.5974 
2 *87:8 *87:12 32.463 
3 *87:12 *7063:A 20 
4 *87:8 *6943:A0 42.0497 
*END

*D_NET *88 0.00122282
*CONN
*I *7039:A I *D sg13g2_dlygate4sd3_1
*I *7064:A I *D sg13g2_buf_1
*I *6991:Q O *D sg13g2_dfrbpq_1
*CAP
1 *7039:A 3.77166e-05
2 *7064:A 6.32578e-05
3 *6991:Q 0.000136757
4 *88:8 0.000237732
5 *7064:A *101:47 0
6 *88:8 *101:47 0
7 *71:10 *7064:A 0.000237975
8 *71:10 *88:8 0.000509383
*RES
1 *6991:Q *88:8 42.3278 
2 *88:8 *7064:A 41.0918 
3 *88:8 *7039:A 40.3193 
*END

*D_NET *89 0.00269861
*CONN
*I *7026:A I *D sg13g2_dlygate4sd3_1
*I *7065:A I *D sg13g2_buf_1
*I *6992:Q O *D sg13g2_dfrbpq_1
*CAP
1 *7026:A 0.000283758
2 *7065:A 0.000505529
3 *6992:Q 2.76249e-05
4 *89:8 0.000816912
5 *7026:A *94:20 0
6 *7026:A *103:8 0.000129275
7 *7065:A *6971:A 0.000112036
8 *7065:A *103:8 0.000615483
9 dout[5] *7065:A 0
10 *69:15 *7026:A 0
11 *71:66 *7065:A 0.000207993
*RES
1 *6992:Q *89:8 40.3193 
2 *89:8 *7065:A 46.1697 
3 *89:8 *7026:A 43.296 
*END

*D_NET *90 0.000966023
*CONN
*I *7030:A I *D sg13g2_dlygate4sd3_1
*I *7066:A I *D sg13g2_buf_1
*I *6993:Q O *D sg13g2_dfrbpq_1
*CAP
1 *7030:A 0
2 *7066:A 0
3 *6993:Q 0.000157935
4 *90:16 0.000325077
5 *90:6 0.000483012
6 *90:6 *6952:S 0
7 *90:6 *136:12 0
8 *90:16 *137:8 0
9 dout[6] *90:6 0
10 dout[6] *90:16 0
*RES
1 *6993:Q *90:6 21.6171 
2 *90:6 *90:16 43.4917 
3 *90:16 *7066:A 20 
4 *90:6 *7030:A 20 
*END

*D_NET *91 0.000766897
*CONN
*I *7067:A I *D sg13g2_buf_1
*I *7035:A I *D sg13g2_dlygate4sd3_1
*I *6994:Q O *D sg13g2_dfrbpq_1
*CAP
1 *7067:A 0.000157311
2 *7035:A 0.000226138
3 *6994:Q 0.000383448
4 dout[7] *7035:A 0
5 dout[7] *7067:A 0
6 *7056:A *7035:A 0
*RES
1 *6994:Q *7035:A 42.3664 
2 *6994:Q *7067:A 41.4008 
*END

*D_NET *92 0.00263997
*CONN
*I *7028:A I *D sg13g2_dlygate4sd3_1
*I *7068:A I *D sg13g2_buf_1
*I *6995:Q O *D sg13g2_dfrbpq_1
*CAP
1 *7028:A 0
2 *7068:A 0
3 *6995:Q 0
4 *92:25 0.000305879
5 *92:12 0.000297692
6 *92:4 0.000603571
7 *92:12 *6950:A1 0.000106392
8 *92:12 *105:10 0.00071625
9 *92:12 *124:12 0.000610185
10 dout[8] *92:12 0
*RES
1 *6995:Q *92:4 20 
2 *92:4 *92:12 44.7174 
3 *92:12 *7068:A 20 
4 *92:4 *92:25 42.9278 
5 *92:25 *7028:A 20 
*END

*D_NET *93 0.00128964
*CONN
*I *7069:A I *D sg13g2_buf_1
*I *7037:A I *D sg13g2_dlygate4sd3_1
*I *6996:Q O *D sg13g2_dfrbpq_1
*CAP
1 *7069:A 0.000247125
2 *7037:A 0.000397696
3 *6996:Q 0
4 *93:6 0.000644821
5 *7037:A *7022:A 0
6 *73:26 *7037:A 0
*RES
1 *6996:Q *93:6 40 
2 *93:6 *7037:A 43.4505 
3 *93:6 *7069:A 42.1218 
*END

*D_NET *94 0.0426438
*CONN
*I *6948:S I *D sg13g2_mux2_1
*I *6953:S I *D sg13g2_mux2_1
*I *6959:S I *D sg13g2_mux2_1
*I *6954:S I *D sg13g2_mux2_1
*I *6955:S I *D sg13g2_mux2_1
*I *6956:S I *D sg13g2_mux2_1
*I *6957:S I *D sg13g2_mux2_1
*I *6958:S I *D sg13g2_mux2_1
*I *7018:X O *D sg13g2_buf_1
*CAP
1 *6948:S 0.00030485
2 *6953:S 0
3 *6959:S 5.80698e-05
4 *6954:S 8.39609e-05
5 *6955:S 0.000265894
6 *6956:S 0
7 *6957:S 0.000232099
8 *6958:S 0.000357708
9 *7018:X 0.000204163
10 *94:46 0.0011227
11 *94:44 0.00129463
12 *94:38 0.00181867
13 *94:32 0.00155936
14 *94:26 0.00151616
15 *94:20 0.00251894
16 *94:12 0.00831545
17 *94:10 0.00707925
18 *6948:S *6961:S 0
19 *6948:S *7022:A 0
20 *6948:S *112:8 0
21 *6955:S *6942:A0 0.00027432
22 *6955:S *6942:S 0
23 *6957:S *6985:A 0
24 *6958:S *6946:A1 0.000236057
25 *6958:S *7058:A 0
26 *6958:S *130:8 0
27 *6958:S *135:10 0.00103716
28 *94:10 *6961:A0 0
29 *94:12 *95:35 0
30 *94:12 *102:29 0
31 *94:12 *102:35 0.00352199
32 *94:12 *107:8 0
33 *94:12 *136:12 0
34 *94:20 *107:8 0.000342865
35 *94:20 *122:8 0
36 *94:26 *6977:A 0
37 *94:26 *98:16 0
38 *94:32 *98:16 0
39 *94:32 *98:22 0
40 *94:32 *120:12 0
41 *94:32 *120:18 0
42 *94:38 *96:10 0.000373627
43 *94:38 *96:12 0.000662302
44 *94:38 *120:18 0
45 *94:38 *135:10 0
46 *94:44 *96:12 0
47 *94:44 *96:14 0
48 *94:44 *96:20 0
49 *94:44 *135:10 0.00224477
50 *94:46 *96:20 0
51 *94:46 *135:10 0.00182186
52 *6953:A0 *94:20 0
53 *7000:CLK *6957:S 0.000339267
54 *7010:D *6948:S 0
55 *7011:CLK *6958:S 0
56 *7026:A *94:20 0
57 *7034:A *6948:S 0
58 *7041:A *6954:S 0
59 *7041:A *94:32 0
60 *23:8 *94:12 0.00110323
61 *32:10 *94:20 0
62 *32:10 *94:26 0
63 *44:8 *94:20 0.000455749
64 *55:10 *94:32 0
65 *56:12 *94:20 0
66 *66:10 *94:38 0
67 *66:10 *94:44 0
68 *70:52 *94:38 0
69 *72:10 *94:12 0
70 *72:14 *94:12 0
71 *72:18 *94:20 0
72 *73:22 *94:12 0
73 *74:14 *94:26 0.00144672
74 *74:14 *94:32 0.00205192
75 *74:14 *94:38 0
76 *77:8 *6958:S 0
*RES
1 *7018:X *94:10 41.7557 
2 *94:10 *94:12 70.3078 
3 *94:12 *94:20 38.4782 
4 *94:20 *94:26 30.3412 
5 *94:26 *94:32 30.6811 
6 *94:32 *94:38 49.991 
7 *94:38 *94:44 32.1025 
8 *94:44 *94:46 8.5078 
9 *94:46 *6958:S 45.7886 
10 *94:46 *6957:S 42.266 
11 *94:44 *6956:S 40 
12 *94:38 *6955:S 22.4823 
13 *94:32 *6954:S 20.7519 
14 *94:26 *6959:S 40.5356 
15 *94:20 *6953:S 20 
16 *94:10 *6948:S 43.0488 
*END

*D_NET *95 0.0201501
*CONN
*I *6949:S I *D sg13g2_mux2_1
*I *6950:S I *D sg13g2_mux2_1
*I *6952:S I *D sg13g2_mux2_1
*I *6951:S I *D sg13g2_mux2_1
*I *7019:X O *D sg13g2_buf_1
*CAP
1 *6949:S 0.000140172
2 *6950:S 0.000112473
3 *6952:S 6.52956e-05
4 *6951:S 0
5 *7019:X 0.000356949
6 *95:35 0.0021493
7 *95:24 0.00322115
8 *95:18 0.00225536
9 *95:12 0.00150287
10 *6949:S *6949:A1 0
11 *6950:S *6950:A1 0
12 *6952:S *136:12 0
13 *95:12 *6949:A1 0
14 *95:18 *99:10 0
15 *95:18 *99:12 0.000183244
16 *95:24 *99:12 0.00113205
17 *95:24 *99:14 0.00199395
18 *95:24 *99:18 0.000613805
19 *7054:A *95:12 0
20 *72:10 *95:35 0.00226571
21 *72:12 *95:35 0.0030157
22 *72:14 *95:35 0.00114208
23 *90:6 *6952:S 0
24 *94:12 *95:35 0
*RES
1 *7019:X *95:12 43.399 
2 *95:12 *95:18 9.6717 
3 *95:18 *95:24 38.128 
4 *95:24 *6951:S 20 
5 *95:24 *95:35 49.8391 
6 *95:35 *6952:S 40.6695 
7 *95:18 *6950:S 40.9682 
8 *95:12 *6949:S 41.3493 
*END

*D_NET *96 0.0136184
*CONN
*I *6975:A I *D sg13g2_inv_1
*I *6974:A I *D sg13g2_inv_1
*I *6986:A I *D sg13g2_inv_1
*I *6973:A I *D sg13g2_inv_1
*I *6985:A I *D sg13g2_inv_1
*I *6972:A I *D sg13g2_inv_1
*I *6984:A I *D sg13g2_inv_1
*I *6983:A I *D sg13g2_inv_1
*I *7020:X O *D sg13g2_buf_1
*CAP
1 *6975:A 0.000256878
2 *6974:A 5.08741e-05
3 *6986:A 6.84928e-05
4 *6973:A 0
5 *6985:A 0.000533608
6 *6972:A 6.97459e-05
7 *6984:A 0.00037715
8 *6983:A 2.77263e-05
9 *7020:X 0.000418146
10 *96:34 0.00108509
11 *96:28 0.00106269
12 *96:26 0.00121829
13 *96:20 0.00113014
14 *96:14 0.000911996
15 *96:12 0.000895535
16 *96:10 0.00143438
17 *6975:A *6987:A 0
18 *6975:A *7020:A 0
19 *6975:A *120:18 0
20 *6984:A *6946:A0 0
21 *6985:A *6957:A0 0.000208327
22 *96:10 *7020:A 0
23 *96:28 *135:10 0
24 *96:34 *6946:A0 0
25 *96:34 *6946:A1 0
26 *96:34 *135:10 0
27 *6957:S *6985:A 0
28 *7000:RESET_B *6972:A 0
29 *7001:RESET_B *96:20 0.000175811
30 *7001:D *6985:A 0
31 *7002:D *6974:A 8.00842e-05
32 *7011:RESET_B *6984:A 0
33 *7052:A *6984:A 0
34 *62:8 *96:34 0
35 *70:8 *96:10 0.00018211
36 *70:8 *96:12 0.0015709
37 *70:21 *96:12 0
38 *70:21 *96:20 0
39 *70:52 *96:10 0.000213286
40 *74:14 *96:10 0
41 *78:8 *96:20 0.000611188
42 *94:38 *96:10 0.000373627
43 *94:38 *96:12 0.000662302
44 *94:44 *96:12 0
45 *94:44 *96:14 0
46 *94:44 *96:20 0
47 *94:46 *96:20 0
*RES
1 *7020:X *96:10 44.9646 
2 *96:10 *96:12 11.227 
3 *96:12 *96:14 0.8446 
4 *96:14 *96:20 28.6108 
5 *96:20 *96:26 24.0067 
6 *96:26 *96:28 3.5638 
7 *96:28 *96:34 28.2091 
8 *96:34 *6983:A 20.3502 
9 *96:34 *6984:A 23.9964 
10 *96:28 *6972:A 40.7519 
11 *96:26 *6985:A 45.0779 
12 *96:20 *6973:A 20 
13 *96:14 *6986:A 40.5356 
14 *96:12 *6974:A 40.5356 
15 *96:10 *6975:A 42.266 
*END

*D_NET *97 0.0205831
*CONN
*I *7025:A I *D sg13g2_buf_1
*I *7024:A I *D sg13g2_buf_1
*I *7060:X O *D sg13g2_buf_1
*CAP
1 *7025:A 0.000529876
2 *7024:A 0.000369316
3 *7060:X 0
4 *97:14 0.000899191
5 *97:12 0.00585313
6 *97:10 0.00585313
7 *97:8 0.0035392
8 *97:6 0.0035392
9 *7025:A *102:10 0
10 *7033:A *7025:A 0
11 *86:10 *7024:A 0
12 *86:10 *7025:A 0
13 *86:12 *7024:A 0
*RES
1 *7060:X *97:6 40 
2 *97:6 *97:8 46.5766 
3 *97:8 *97:10 20 
4 *97:10 *97:12 66.7234 
5 *97:12 *97:14 20 
6 *97:14 *7024:A 44.7998 
7 *97:14 *7025:A 46.077 
*END

*D_NET *98 0.0111096
*CONN
*I *6940:A I *D sg13g2_inv_1
*I *6977:A I *D sg13g2_inv_1
*I *6971:A I *D sg13g2_inv_1
*I *6988:A I *D sg13g2_inv_1
*I *6976:A I *D sg13g2_inv_1
*I *7020:A I *D sg13g2_buf_1
*I *6987:A I *D sg13g2_inv_1
*I *7021:X O *D sg13g2_buf_1
*CAP
1 *6940:A 5.74818e-05
2 *6977:A 4.98577e-05
3 *6971:A 0.000498888
4 *6988:A 0.000154608
5 *6976:A 0.000144244
6 *7020:A 0.000516751
7 *6987:A 0.000471179
8 *7021:X 6.68694e-05
9 *98:24 0.00166881
10 *98:22 0.00154782
11 *98:16 0.00126783
12 *98:14 0.00132695
13 *98:12 0.00166652
14 *98:6 0.00130348
15 *6976:A *7004:D 0
16 *6987:A *101:32 0
17 *6987:A *120:18 0
18 *6988:A *101:24 0
19 *7020:A *6991:D 0
20 *98:12 *7021:A 0
21 *98:12 *101:20 0
22 *98:14 *101:20 0
23 *98:22 *120:12 0
24 *98:24 *101:32 0
25 *98:24 *120:12 0
26 *98:24 *120:18 0
27 dout[5] *6971:A 0
28 *6942:A1 *6987:A 0
29 *6942:A1 *98:24 0
30 *6954:A0 *6976:A 0
31 *6954:A0 *98:22 0
32 *6975:A *6987:A 0
33 *6975:A *7020:A 0
34 *6999:RESET_B *6971:A 0.000208447
35 *7041:A *98:24 0
36 *7065:A *6971:A 0.000112036
37 *32:10 *6977:A 4.78192e-05
38 *55:10 *98:22 0
39 *56:12 *6977:A 0
40 *56:12 *98:12 0
41 *70:58 *7020:A 0
42 *74:14 *98:12 0
43 *74:14 *98:14 0
44 *81:19 *98:16 0
45 *81:19 *98:22 0
46 *94:26 *6977:A 0
47 *94:26 *98:16 0
48 *94:32 *98:16 0
49 *94:32 *98:22 0
50 *96:10 *7020:A 0
*RES
1 *7021:X *98:6 20.8446 
2 *98:6 *98:12 32.4424 
3 *98:12 *98:14 4.7998 
4 *98:14 *98:16 4.3054 
5 *98:16 *98:22 7.9413 
6 *98:22 *98:24 6.0358 
7 *98:24 *6987:A 44.0067 
8 *98:24 *7020:A 44.8616 
9 *98:22 *6976:A 41.1845 
10 *98:16 *6988:A 41.4008 
11 *98:14 *6971:A 45.2736 
12 *98:12 *6977:A 40.5356 
13 *98:6 *6940:A 20.5356 
*END

*D_NET *99 0.0211644
*CONN
*I *6969:A I *D sg13g2_inv_1
*I *6970:A I *D sg13g2_inv_1
*I *6968:A I *D sg13g2_inv_1
*I *6980:A I *D sg13g2_inv_1
*I *6967:A I *D sg13g2_inv_1
*I *6979:A I *D sg13g2_inv_1
*I *6966:A I *D sg13g2_inv_1
*I *6978:A I *D sg13g2_inv_1
*I *7022:X O *D sg13g2_buf_1
*CAP
1 *6969:A 0.000143344
2 *6970:A 6.57229e-05
3 *6968:A 6.76465e-05
4 *6980:A 0.000134229
5 *6967:A 8.69703e-05
6 *6979:A 0.000129867
7 *6966:A 5.80698e-05
8 *6978:A 0
9 *7022:X 3.73872e-05
10 *99:78 0.000744457
11 *99:67 0.000731527
12 *99:24 0.00160933
13 *99:18 0.00328396
14 *99:14 0.00235833
15 *99:12 0.0011461
16 *99:10 0.00222769
17 *99:8 0.00181211
18 *6968:A *7022:A 0
19 *6980:A *7008:D 0
20 *99:8 *7022:A 0
21 *99:10 *6949:A0 0
22 *99:10 *102:29 0
23 *99:10 *115:8 0
24 *99:12 *6950:A1 0
25 *99:14 *102:45 0
26 *99:18 *102:45 0.000933445
27 *99:18 *113:8 0
28 *99:67 *102:29 0
29 *99:78 *102:25 0
30 *99:78 *102:29 0
31 *6950:A0 *99:10 0
32 *6950:A0 *99:12 0
33 *6962:A1 *99:10 0
34 *7006:RESET_B *99:24 0.000436713
35 *7007:RESET_B *6979:A 0
36 *7008:RESET_B *6980:A 0
37 *7034:A *6968:A 0.000112548
38 *7045:A *99:12 0.000345126
39 *7045:A *99:14 0.000430561
40 *7056:A *99:18 0
41 *3:14 *99:24 0
42 *25:8 *6969:A 0
43 *68:12 *6970:A 0
44 *72:12 *99:18 0
45 *72:12 *99:24 0
46 *72:14 *99:24 0
47 *73:26 *99:8 0
48 *73:37 *6969:A 0
49 *73:37 *99:10 0
50 *73:37 *99:67 0
51 *73:37 *99:78 0
52 *83:10 *99:24 0
53 *84:8 *99:14 0.000346247
54 *85:21 *99:10 0
55 *95:18 *99:10 0
56 *95:18 *99:12 0.000183244
57 *95:24 *99:12 0.00113205
58 *95:24 *99:14 0.00199395
59 *95:24 *99:18 0.000613805
*RES
1 *7022:X *99:8 40.3193 
2 *99:8 *99:10 15.4294 
3 *99:10 *99:12 6.7774 
4 *99:12 *99:14 9.2494 
5 *99:14 *99:18 17.4791 
6 *99:18 *99:24 35.7796 
7 *99:24 *6978:A 20 
8 *99:18 *6966:A 40.5356 
9 *99:14 *6979:A 41.1845 
10 *99:12 *6967:A 40.4791 
11 *99:10 *6980:A 41.1845 
12 *99:8 *99:67 1.339 
13 *99:67 *6968:A 40.7519 
14 *99:67 *99:78 5.5414 
15 *99:78 *6970:A 40.7519 
16 *99:78 *6969:A 41.5965 
*END

*D_NET *100 0.0273882
*CONN
*I *6982:A I *D sg13g2_inv_1
*I *7022:A I *D sg13g2_buf_1
*I *6981:A I *D sg13g2_inv_1
*I *7021:A I *D sg13g2_buf_1
*I *7023:X O *D sg13g2_buf_1
*CAP
1 *6982:A 0.000300862
2 *7022:A 0.000460123
3 *6981:A 5.70783e-05
4 *7021:A 0.000453765
5 *7023:X 0
6 *100:30 0.0010055
7 *100:10 0.00429721
8 *100:8 0.00397993
9 *100:6 0.00032392
10 *6981:A *108:12 0
11 *6982:A *101:12 0
12 *7021:A *6965:A0 0
13 *7021:A *101:16 0
14 *100:8 *101:12 0
15 *100:10 *101:12 0
16 *100:30 *101:12 0
17 *6948:S *7022:A 0
18 *6968:A *7022:A 0
19 *7009:CLK *7022:A 0
20 *7034:A *7022:A 0
21 *7037:A *7022:A 0
22 *68:12 *6982:A 0
23 *73:26 *7022:A 0
24 *86:12 *6982:A 0.000929864
25 *86:12 *100:8 0.000288174
26 *86:12 *100:10 0.0143614
27 *86:12 *100:30 0.000930365
28 *98:12 *7021:A 0
29 *99:8 *7022:A 0
*RES
1 *7023:X *100:6 40 
2 *100:6 *100:8 1.339 
3 *100:8 *100:10 66.3526 
4 *100:10 *7021:A 44.6453 
5 *100:8 *6981:A 40.5356 
6 *100:6 *100:30 4.3054 
7 *100:30 *7022:A 44.6453 
8 *100:30 *6982:A 44.841 
*END

*D_NET *101 0.0364272
*CONN
*I *6947:A I *D sg13g2_nor2b_1
*I *6965:S I *D sg13g2_mux2_1
*I *6941:S I *D sg13g2_mux2_1
*I *6943:S I *D sg13g2_mux2_1
*I *6944:S I *D sg13g2_mux2_1
*I *6945:S I *D sg13g2_mux2_1
*I *6946:S I *D sg13g2_mux2_1
*I *6942:S I *D sg13g2_mux2_1
*I *7024:X O *D sg13g2_buf_1
*CAP
1 *6947:A 0
2 *6965:S 7.57962e-05
3 *6941:S 2.87166e-05
4 *6943:S 0
5 *6944:S 0
6 *6945:S 0
7 *6946:S 0.000499345
8 *6942:S 0.000161468
9 *7024:X 0.000174942
10 *101:51 0.000925314
11 *101:49 0.00130188
12 *101:47 0.00165114
13 *101:34 0.000936695
14 *101:32 0.00131649
15 *101:24 0.00140244
16 *101:20 0.00169484
17 *101:16 0.00219369
18 *101:12 0.00623439
19 *101:10 0.00592904
20 *6946:S *6945:A1 0.000209845
21 *6946:S *6946:A0 0
22 *6946:S *6958:A0 0
23 *6946:S *142:16 0
24 *101:10 *119:12 0
25 *101:20 *122:8 0
26 *101:32 *6955:A1 0.000340375
27 *101:47 *6943:A1 0.000128662
28 *101:47 *6955:A1 0.00114249
29 *101:47 *6956:A1 0
30 *101:47 *128:8 0.000876919
31 *101:47 *129:8 0
32 *101:49 *6944:A1 0
33 *101:49 *6956:A1 0
34 *101:49 *142:8 0
35 *101:51 *6944:A1 0
36 *101:51 *6945:A1 0
37 *101:51 *6957:A1 0
38 *101:51 *131:8 0
39 *101:51 *142:8 0
40 *101:51 *142:16 0
41 *6942:A1 *101:32 0
42 *6953:A0 *101:20 0.0016916
43 *6954:A0 *101:32 0.00162352
44 *6955:S *6942:S 0
45 *6982:A *101:12 0
46 *6987:A *101:32 0
47 *6988:A *101:24 0
48 *7021:A *101:16 0
49 *7043:A *101:20 0.000343207
50 *7043:A *101:32 0.000235075
51 *7052:A *6946:S 0
52 *7057:A *101:20 0.000214719
53 *7064:A *101:47 0
54 *42:8 *101:32 0
55 *54:10 *101:32 0.000448185
56 *69:34 *101:32 0
57 *70:8 *101:32 0
58 *71:8 *101:32 0
59 *71:10 *101:47 0
60 *71:12 *101:47 0
61 *71:53 *101:32 0.00141023
62 *71:66 *101:32 0.00128056
63 *79:10 *6942:S 0
64 *81:19 *101:32 0.000448421
65 *82:19 *101:20 0.00150718
66 *86:12 *101:10 0
67 *86:12 *101:12 0
68 *87:8 *101:47 0
69 *87:12 *101:47 0
70 *87:12 *101:49 0
71 *88:8 *101:47 0
72 *98:12 *101:20 0
73 *98:14 *101:20 0
74 *98:24 *101:32 0
75 *100:8 *101:12 0
76 *100:10 *101:12 0
77 *100:30 *101:12 0
*RES
1 *7024:X *101:10 41.8746 
2 *101:10 *101:12 74.263 
3 *101:12 *101:16 25.0779 
4 *101:16 *101:20 41.3622 
5 *101:20 *101:24 20.2628 
6 *101:24 *101:32 42.0317 
7 *101:32 *101:34 20 
8 *101:34 *6942:S 21.4008 
9 *101:34 *101:47 31.2682 
10 *101:47 *101:49 8.2606 
11 *101:49 *101:51 5.047 
12 *101:51 *6946:S 45.3354 
13 *101:51 *6945:S 40 
14 *101:49 *6944:S 40 
15 *101:47 *6943:S 40 
16 *101:24 *6941:S 20.2313 
17 *101:16 *6965:S 20.7519 
18 *101:10 *6947:A 40 
*END

*D_NET *102 0.0233287
*CONN
*I *6961:S I *D sg13g2_mux2_1
*I *6962:S I *D sg13g2_mux2_1
*I *6963:S I *D sg13g2_mux2_1
*I *6964:S I *D sg13g2_mux2_1
*I *6960:S I *D sg13g2_mux2_1
*I *7025:X O *D sg13g2_buf_1
*CAP
1 *6961:S 5.04663e-05
2 *6962:S 6.86923e-05
3 *6963:S 0
4 *6964:S 0.000170362
5 *6960:S 0
6 *7025:X 0.00057328
7 *102:45 0.00222682
8 *102:35 0.00315856
9 *102:29 0.00212073
10 *102:25 0.00141365
11 *102:14 0.00046939
12 *102:10 0.000629426
13 *6961:S *6961:A0 0
14 *6962:S *6949:A1 0
15 *6962:S *6962:A0 0
16 *102:10 *6998:D 0
17 *102:10 *110:8 0
18 *102:29 *115:8 0.000875259
19 *102:35 *6950:A1 0.000561975
20 *102:35 *124:12 0.00094257
21 *102:45 *105:10 0.000182023
22 *102:45 *124:12 0
23 *6948:S *6961:S 0
24 *6950:A0 *102:35 0
25 *6962:A1 *102:29 0
26 *6964:A1 *6964:S 0
27 *6994:RESET_B *6964:S 1.53662e-05
28 *7025:A *102:10 0
29 *7033:A *102:25 0
30 *7036:A *6964:S 0
31 *7045:A *102:45 0.000235556
32 *7054:A *6962:S 0.000112092
33 *23:8 *102:29 0.00110375
34 *25:8 *102:10 0.000660643
35 *25:8 *102:25 0
36 *72:10 *102:45 0.00296019
37 *72:12 *102:45 0
38 *73:52 *102:10 0
39 *73:58 *102:10 0
40 *76:8 *102:10 0
41 *84:8 *102:45 0.000342449
42 *94:12 *102:29 0
43 *94:12 *102:35 0.00352199
44 *99:10 *102:29 0
45 *99:14 *102:45 0
46 *99:18 *102:45 0.000933445
47 *99:67 *102:29 0
48 *99:78 *102:25 0
49 *99:78 *102:29 0
*RES
1 *7025:X *102:10 46.6332 
2 *102:10 *102:14 20.5356 
3 *102:14 *6960:S 20 
4 *102:14 *102:25 24.5058 
5 *102:25 *102:29 11.7935 
6 *102:29 *102:35 36.9229 
7 *102:35 *102:45 43.9934 
8 *102:45 *6964:S 41.4008 
9 *102:35 *6963:S 20 
10 *102:29 *6962:S 40.7519 
11 *102:25 *6961:S 40.5356 
*END

*D_NET *103 0.00211163
*CONN
*I *6941:A0 I *D sg13g2_mux2_1
*I *7026:X O *D sg13g2_dlygate4sd3_1
*CAP
1 *6941:A0 0.000176049
2 *7026:X 0.000507389
3 *103:8 0.000683438
4 dout[5] *6941:A0 0
5 *6992:RESET_B *6941:A0 0
6 *7026:A *103:8 0.000129275
7 *7065:A *103:8 0.000615483
*RES
1 *7026:X *103:8 46.0358 
2 *103:8 *6941:A0 41.6171 
*END

*D_NET *104 9.45957e-05
*CONN
*I *6992:D I *D sg13g2_dfrbpq_1
*I *7027:X O *D sg13g2_dlygate4sd3_1
*CAP
1 *6992:D 4.72978e-05
2 *7027:X 4.72978e-05
3 *6992:RESET_B *6992:D 0
4 *7027:A *6992:D 0
*RES
1 *7027:X *6992:D 40.5974 
*END

*D_NET *105 0.00240342
*CONN
*I *6963:A0 I *D sg13g2_mux2_1
*I *7028:X O *D sg13g2_dlygate4sd3_1
*CAP
1 *6963:A0 0
2 *7028:X 0.000752574
3 *105:10 0.000752574
4 *105:10 *6950:A1 0
5 *105:10 *124:12 0
6 *7045:A *105:10 0
7 *92:12 *105:10 0.00071625
8 *102:45 *105:10 0.000182023
*RES
1 *7028:X *105:10 47.6529 
2 *105:10 *6963:A0 40 
*END

*D_NET *106 9.45957e-05
*CONN
*I *6995:D I *D sg13g2_dfrbpq_1
*I *7029:X O *D sg13g2_dlygate4sd3_1
*CAP
1 *6995:D 4.72978e-05
2 *7029:X 4.72978e-05
3 *7029:A *6995:D 0
*RES
1 *7029:X *6995:D 40.5974 
*END

*D_NET *107 0.00165799
*CONN
*I *6965:A0 I *D sg13g2_mux2_1
*I *7030:X O *D sg13g2_dlygate4sd3_1
*CAP
1 *6965:A0 5.6328e-05
2 *7030:X 0.000206625
3 *107:8 0.000262953
4 *6993:CLK *6965:A0 0
5 *7021:A *6965:A0 0
6 *72:14 *107:8 0.000288174
7 *72:18 *107:8 0.000501046
8 *94:12 *107:8 0
9 *94:20 *107:8 0.000342865
*RES
1 *7030:X *107:8 43.5638 
2 *107:8 *6965:A0 40.6695 
*END

*D_NET *108 0.0141177
*CONN
*I *7023:A I *D sg13g2_buf_1
*I *7061:X O *D sg13g2_buf_1
*CAP
1 *7023:A 0
2 *7061:X 0.000239204
3 *108:12 0.00681966
4 *108:10 0.00681966
5 *108:8 0.000239204
6 *6981:A *108:12 0
*RES
1 *7061:X *108:8 43.0694 
2 *108:8 *108:10 20 
3 *108:10 *108:12 77.5384 
4 *108:12 *7023:A 20 
*END

*D_NET *109 9.45957e-05
*CONN
*I *6993:D I *D sg13g2_dfrbpq_1
*I *7031:X O *D sg13g2_dlygate4sd3_1
*CAP
1 *6993:D 4.72978e-05
2 *7031:X 4.72978e-05
*RES
1 *7031:X *6993:D 40.5974 
*END

*D_NET *110 0.00253145
*CONN
*I *6960:A1 I *D sg13g2_mux2_1
*I *6948:A0 I *D sg13g2_mux2_1
*I *7032:X O *D sg13g2_dlygate4sd3_1
*CAP
1 *6960:A1 0.000173251
2 *6948:A0 0.000578276
3 *7032:X 0.000145855
4 *110:8 0.000897383
5 *6948:A0 *6949:A0 7.57164e-05
6 *6948:A0 *6961:A1 0.000372382
7 *6948:A0 *112:10 0.000160341
8 *7010:CLK *6960:A1 0
9 *7033:A *6960:A1 0
10 *73:37 *6948:A0 0
11 *73:52 *6948:A0 0
12 *73:52 *110:8 0
13 *76:8 *110:8 0.000128248
14 *86:12 *6948:A0 0
15 *86:12 *110:8 0
16 *102:10 *110:8 0
*RES
1 *7032:X *110:8 41.5862 
2 *110:8 *6948:A0 46.7774 
3 *110:8 *6960:A1 41.6171 
*END

*D_NET *111 0.000824145
*CONN
*I *6998:D I *D sg13g2_dfrbpq_1
*I *7033:X O *D sg13g2_dlygate4sd3_1
*CAP
1 *6998:D 0.000323556
2 *7033:X 0.000323556
3 *7033:A *6998:D 0
4 *73:52 *6998:D 0.000177032
5 *102:10 *6998:D 0
*RES
1 *7033:X *6998:D 43.1312 
*END

*D_NET *112 0.00444741
*CONN
*I *6961:A1 I *D sg13g2_mux2_1
*I *6948:A1 I *D sg13g2_mux2_1
*I *6949:A0 I *D sg13g2_mux2_1
*I *7034:X O *D sg13g2_dlygate4sd3_1
*CAP
1 *6961:A1 0.000171143
2 *6948:A1 0
3 *6949:A0 0.000701557
4 *7034:X 0.000105482
5 *112:10 0.000731928
6 *112:8 0.000306996
7 *6948:A0 *6949:A0 7.57164e-05
8 *6948:A0 *6961:A1 0.000372382
9 *6948:A0 *112:10 0.000160341
10 *6948:S *112:8 0
11 *68:12 *6961:A1 0.000208758
12 *73:37 *6949:A0 0.0010356
13 *73:37 *6961:A1 0.000395396
14 *73:37 *112:10 0.000182109
15 *99:10 *6949:A0 0
*RES
1 *7034:X *112:8 41.1845 
2 *112:8 *112:10 0.8446 
3 *112:10 *6949:A0 49.8159 
4 *112:10 *6948:A1 40 
5 *112:8 *6961:A1 43.2342 
*END

*D_NET *113 0.000677331
*CONN
*I *6964:A0 I *D sg13g2_mux2_1
*I *7035:X O *D sg13g2_dlygate4sd3_1
*CAP
1 *6964:A0 0
2 *7035:X 0.000338665
3 *113:8 0.000338665
4 *7056:A *113:8 0
5 *86:12 *113:8 0
6 *99:18 *113:8 0
*RES
1 *7035:X *113:8 43.3166 
2 *113:8 *6964:A0 40 
*END

*D_NET *114 0.000350356
*CONN
*I *6994:D I *D sg13g2_dfrbpq_1
*I *7036:X O *D sg13g2_dlygate4sd3_1
*CAP
1 *6994:D 0.000175178
2 *7036:X 0.000175178
3 *7036:A *6994:D 0
*RES
1 *7036:X *6994:D 41.6171 
*END

*D_NET *115 0.00192024
*CONN
*I *6962:A0 I *D sg13g2_mux2_1
*I *7037:X O *D sg13g2_dlygate4sd3_1
*CAP
1 *6962:A0 3.66355e-05
2 *7037:X 0.000196893
3 *115:8 0.000233529
4 *6962:A1 *115:8 7.51285e-05
5 *6962:S *6962:A0 0
6 *47:10 *115:8 0.000502791
7 *99:10 *115:8 0
8 *102:29 *115:8 0.000875259
*RES
1 *7037:X *115:8 44.0582 
2 *115:8 *6962:A0 40.3193 
*END

*D_NET *116 0.000408621
*CONN
*I *6996:D I *D sg13g2_dfrbpq_1
*I *7038:X O *D sg13g2_dlygate4sd3_1
*CAP
1 *6996:D 0.00020431
2 *7038:X 0.00020431
3 *6996:D *6949:A1 0
4 *6996:RESET_B *6996:D 0
5 *7009:RESET_B *6996:D 0
6 *7054:A *6996:D 0
*RES
1 *7038:X *6996:D 41.9673 
*END

*D_NET *117 0.00103855
*CONN
*I *6942:A0 I *D sg13g2_mux2_1
*I *7039:X O *D sg13g2_dlygate4sd3_1
*CAP
1 *6942:A0 0.000382113
2 *7039:X 0.000382113
3 *6942:A0 *120:18 0
4 *6955:S *6942:A0 0.00027432
5 *54:10 *6942:A0 0
*RES
1 *7039:X *6942:A0 44.1509 
*END

*D_NET *118 0.00118858
*CONN
*I *6991:D I *D sg13g2_dfrbpq_1
*I *7040:X O *D sg13g2_dlygate4sd3_1
*CAP
1 *6991:D 0.000594288
2 *7040:X 0.000594288
3 *6991:RESET_B *6991:D 0
4 *7003:RESET_B *6991:D 0
5 *7003:CLK *6991:D 0
6 *7020:A *6991:D 0
7 *69:34 *6991:D 0
8 *70:58 *6991:D 0
9 *71:53 *6991:D 0
*RES
1 *7040:X *6991:D 45.8607 
*END

*D_NET *119 0.0139406
*CONN
*I *6947:B_N I *D sg13g2_nor2b_1
*I *7062:X O *D sg13g2_buf_1
*CAP
1 *6947:B_N 0
2 *7062:X 0
3 *119:12 0.00297709
4 *119:10 0.00297709
5 *119:8 0.00399321
6 *119:6 0.00399321
7 *101:10 *119:12 0
*RES
1 *7062:X *119:6 40 
2 *119:6 *119:8 52.2622 
3 *119:8 *119:10 20 
4 *119:10 *119:12 33.8458 
5 *119:12 *6947:B_N 20 
*END

*D_NET *120 0.00560849
*CONN
*I *6954:A1 I *D sg13g2_mux2_1
*I *6955:A0 I *D sg13g2_mux2_1
*I *7041:X O *D sg13g2_dlygate4sd3_1
*CAP
1 *6954:A1 0
2 *6955:A0 0
3 *7041:X 0.00025871
4 *120:18 0.000742233
5 *120:12 0.00100094
6 *6942:A0 *120:18 0
7 *6942:A1 *120:18 0.00199466
8 *6975:A *120:18 0
9 *6987:A *120:18 0
10 *7041:A *120:12 0
11 *7041:A *120:18 0.000106064
12 *55:10 *120:12 0.00012816
13 *70:8 *120:18 0.000662803
14 *70:52 *120:18 0.000714919
15 *94:32 *120:12 0
16 *94:32 *120:18 0
17 *94:38 *120:18 0
18 *98:22 *120:12 0
19 *98:24 *120:12 0
20 *98:24 *120:18 0
*RES
1 *7041:X *120:12 43.0591 
2 *120:12 *120:18 32.0716 
3 *120:18 *6955:A0 20 
4 *120:12 *6954:A1 40 
*END

*D_NET *121 0.000326738
*CONN
*I *7004:D I *D sg13g2_dfrbpq_1
*I *7042:X O *D sg13g2_dlygate4sd3_1
*CAP
1 *7004:D 0.000163369
2 *7042:X 0.000163369
3 *6954:A0 *7004:D 0
4 *6976:A *7004:D 0
5 *7004:RESET_B *7004:D 0
*RES
1 *7042:X *7004:D 41.5347 
*END

*D_NET *122 0.000680267
*CONN
*I *6953:A1 I *D sg13g2_mux2_1
*I *7043:X O *D sg13g2_dlygate4sd3_1
*CAP
1 *6953:A1 0
2 *7043:X 0.000302543
3 *122:8 0.000302543
4 *6953:A0 *122:8 7.51811e-05
5 *94:20 *122:8 0
6 *101:20 *122:8 0
*RES
1 *7043:X *122:8 42.8222 
2 *122:8 *6953:A1 40 
*END

*D_NET *123 0.000417209
*CONN
*I *7005:D I *D sg13g2_dfrbpq_1
*I *7044:X O *D sg13g2_dlygate4sd3_1
*CAP
1 *7005:D 0.000120468
2 *7044:X 0.000120468
3 *56:12 *7005:D 0.000176274
*RES
1 *7044:X *7005:D 41.1845 
*END

*D_NET *124 0.00603568
*CONN
*I *6950:A1 I *D sg13g2_mux2_1
*I *6951:A0 I *D sg13g2_mux2_1
*I *7045:X O *D sg13g2_dlygate4sd3_1
*CAP
1 *6950:A1 0.000319284
2 *6951:A0 0
3 *7045:X 0
4 *124:12 0.00153204
5 *124:6 0.00185133
6 *6950:A1 *7008:D 0
7 *124:12 *136:23 8.0216e-05
8 *6950:A0 *6950:A1 3.1684e-05
9 *6950:S *6950:A1 0
10 *7008:RESET_B *6950:A1 0
11 *72:10 *124:12 0
12 *92:12 *6950:A1 0.000106392
13 *92:12 *124:12 0.000610185
14 *99:12 *6950:A1 0
15 *102:35 *6950:A1 0.000561975
16 *102:35 *124:12 0.00094257
17 *102:45 *124:12 0
18 *105:10 *6950:A1 0
19 *105:10 *124:12 0
*RES
1 *7045:X *124:6 40 
2 *124:6 *124:12 34.9762 
3 *124:12 *6951:A0 20 
4 *124:6 *6950:A1 44.4599 
*END

*D_NET *125 0.000415444
*CONN
*I *7008:D I *D sg13g2_dfrbpq_1
*I *7046:X O *D sg13g2_dlygate4sd3_1
*CAP
1 *7008:D 0.000119809
2 *7046:X 0.000119809
3 *6950:A1 *7008:D 0
4 *6980:A *7008:D 0
5 *7008:RESET_B *7008:D 0.000175826
*RES
1 *7046:X *7008:D 41.1845 
*END

*D_NET *126 0.00423087
*CONN
*I *6956:A1 I *D sg13g2_mux2_1
*I *6957:A0 I *D sg13g2_mux2_1
*I *6944:A1 I *D sg13g2_mux2_1
*I *7047:X O *D sg13g2_dlygate4sd3_1
*CAP
1 *6956:A1 0.000878327
2 *6957:A0 0.000131479
3 *6944:A1 0.000288782
4 *7047:X 0
5 *126:8 0.000775411
6 *126:6 0.00123348
7 *6944:A1 *6957:A1 0
8 *6956:A1 *6943:A1 0.000128662
9 *6956:A1 *6956:A0 0.000533371
10 *6956:A1 *128:8 5.30319e-05
11 *6985:A *6957:A0 0.000208327
12 *7002:D *6956:A1 0
13 *41:10 *6956:A1 0
14 *70:21 *6956:A1 0
15 *101:47 *6956:A1 0
16 *101:49 *6944:A1 0
17 *101:49 *6956:A1 0
18 *101:51 *6944:A1 0
*RES
1 *7047:X *126:6 40 
2 *126:6 *126:8 3.3166 
3 *126:8 *6944:A1 42.6471 
4 *126:8 *6957:A0 41.4008 
5 *126:6 *6956:A1 49.1052 
*END

*D_NET *127 9.45957e-05
*CONN
*I *6989:D I *D sg13g2_dfrbpq_1
*I *7048:X O *D sg13g2_dlygate4sd3_1
*CAP
1 *6989:D 4.72978e-05
2 *7048:X 4.72978e-05
*RES
1 *7048:X *6989:D 40.5974 
*END

*D_NET *128 0.00526328
*CONN
*I *6955:A1 I *D sg13g2_mux2_1
*I *6956:A0 I *D sg13g2_mux2_1
*I *6943:A1 I *D sg13g2_mux2_1
*I *7049:X O *D sg13g2_dlygate4sd3_1
*CAP
1 *6955:A1 0.00041568
2 *6956:A0 0.000343728
3 *6943:A1 2.37683e-05
4 *7049:X 0
5 *128:8 0.000614202
6 *128:6 0.000662385
7 *6956:A1 *6943:A1 0.000128662
8 *6956:A1 *6956:A0 0.000533371
9 *6956:A1 *128:8 5.30319e-05
10 *41:10 *6955:A1 0
11 *41:10 *128:8 0
12 *70:8 *6955:A1 0
13 *70:21 *6955:A1 0
14 *71:10 *6955:A1 0
15 *79:10 *6955:A1 0
16 *101:32 *6955:A1 0.000340375
17 *101:47 *6943:A1 0.000128662
18 *101:47 *6955:A1 0.00114249
19 *101:47 *128:8 0.000876919
*RES
1 *7049:X *128:6 40 
2 *128:6 *128:8 4.0582 
3 *128:8 *6943:A1 40.5974 
4 *128:8 *6956:A0 43.7801 
5 *128:6 *6955:A1 46.7774 
*END

*D_NET *129 0.000964367
*CONN
*I *6990:D I *D sg13g2_dfrbpq_1
*I *7050:X O *D sg13g2_dlygate4sd3_1
*CAP
1 *6990:D 0.000157803
2 *7050:X 0.00032438
3 *129:8 0.000482183
4 *6990:RESET_B *6990:D 0
5 *12:10 *6990:D 0
6 *101:47 *129:8 0
*RES
1 *7050:X *129:8 43.5638 
2 *129:8 *6990:D 41.6171 
*END

*D_NET *130 0.0121362
*CONN
*I *7058:A I *D sg13g2_dlygate4sd3_1
*I *7070:A I *D sg13g2_buf_1
*I *7011:Q O *D sg13g2_dfrbpq_1
*CAP
1 *7058:A 0.000268658
2 *7070:A 0.000411739
3 *7011:Q 0
4 *130:8 0.00551066
5 *130:6 0.00536758
6 *7058:A *6958:A0 0
7 *7058:A *138:8 0.000129077
8 *130:8 *6946:A1 0
9 *130:8 *138:8 0.000448515
10 *6958:S *7058:A 0
11 *6958:S *130:8 0
12 *7011:CLK *7058:A 0
13 *7011:CLK *130:8 0
14 *7051:A *7058:A 0
15 *62:8 *130:8 0
*RES
1 *7011:Q *130:6 40 
2 *130:6 *130:8 66.5998 
3 *130:8 *7070:A 44.429 
4 *130:6 *7058:A 43.0797 
*END

*D_NET *131 0.00360631
*CONN
*I *6957:A1 I *D sg13g2_mux2_1
*I *6958:A0 I *D sg13g2_mux2_1
*I *6945:A1 I *D sg13g2_mux2_1
*I *7051:X O *D sg13g2_dlygate4sd3_1
*CAP
1 *6957:A1 0.000224158
2 *6958:A0 0.00029001
3 *6945:A1 0.000228883
4 *7051:X 0
5 *131:8 0.000653128
6 *131:6 0.000358393
7 *6944:A1 *6957:A1 0
8 *6946:S *6945:A1 0.000209845
9 *6946:S *6958:A0 0
10 *7000:D *6958:A0 0
11 *7011:CLK *6945:A1 0.000395811
12 *7011:CLK *6957:A1 0.00047969
13 *7011:CLK *131:8 0.000479865
14 *7058:A *6958:A0 0
15 *70:23 *6957:A1 0.000286526
16 *101:51 *6945:A1 0
17 *101:51 *6957:A1 0
18 *101:51 *131:8 0
*RES
1 *7051:X *131:6 40 
2 *131:6 *131:8 2.3278 
3 *131:8 *6945:A1 43.2342 
4 *131:8 *6958:A0 42.9355 
5 *131:6 *6957:A1 43.5638 
*END

*D_NET *132 0.000651138
*CONN
*I *7012:D I *D sg13g2_dfrbpq_1
*I *7052:X O *D sg13g2_dlygate4sd3_1
*CAP
1 *7012:D 0.000165051
2 *7052:X 0.000160519
3 *132:8 0.000325569
4 *7012:RESET_B *7012:D 0
*RES
1 *7052:X *132:8 41.8334 
2 *132:8 *7012:D 41.6171 
*END

*D_NET *133 0.000367124
*CONN
*I *6961:A0 I *D sg13g2_mux2_1
*I *7053:X O *D sg13g2_dlygate4sd3_1
*CAP
1 *6961:A0 0.000183562
2 *7053:X 0.000183562
3 *6961:S *6961:A0 0
4 *68:12 *6961:A0 0
5 *94:10 *6961:A0 0
*RES
1 *7053:X *6961:A0 41.6171 
*END

*D_NET *134 0.00091096
*CONN
*I *6949:A1 I *D sg13g2_mux2_1
*I *7054:X O *D sg13g2_dlygate4sd3_1
*CAP
1 *6949:A1 0.00045548
2 *7054:X 0.00045548
3 *6949:S *6949:A1 0
4 *6962:S *6949:A1 0
5 *6996:D *6949:A1 0
6 *7054:A *6949:A1 0
7 *47:10 *6949:A1 0
8 *95:12 *6949:A1 0
*RES
1 *7054:X *6949:A1 44.1818 
*END

*D_NET *135 0.0129254
*CONN
*I *6959:A0 I *D sg13g2_mux2_1
*I *6958:A1 I *D sg13g2_mux2_1
*I *6946:A1 I *D sg13g2_mux2_1
*I *7055:X O *D sg13g2_dlygate4sd3_1
*CAP
1 *6959:A0 0
2 *6958:A1 0
3 *6946:A1 0.000231365
4 *7055:X 0
5 *135:32 0.00185758
6 *135:10 0.00181717
7 *135:6 0.00344339
8 *6958:S *6946:A1 0.000236057
9 *6958:S *135:10 0.00103716
10 *66:10 *135:10 0.000236057
11 *66:10 *135:32 0
12 *70:58 *135:32 0
13 *74:14 *135:32 0
14 *94:38 *135:10 0
15 *94:44 *135:10 0.00224477
16 *94:46 *135:10 0.00182186
17 *96:28 *135:10 0
18 *96:34 *6946:A1 0
19 *96:34 *135:10 0
20 *130:8 *6946:A1 0
*RES
1 *7055:X *135:6 40 
2 *135:6 *135:10 26.1311 
3 *135:10 *6946:A1 43.0694 
4 *135:10 *6958:A1 40 
5 *135:6 *135:32 38.437 
6 *135:32 *6959:A0 20 
*END

*D_NET *136 0.00695256
*CONN
*I *6951:A1 I *D sg13g2_mux2_1
*I *6952:A0 I *D sg13g2_mux2_1
*I *7056:X O *D sg13g2_dlygate4sd3_1
*CAP
1 *6951:A1 0
2 *6952:A0 0
3 *7056:X 0
4 *136:23 0.00113762
5 *136:12 0.00229855
6 *136:6 0.00343617
7 *6952:S *136:12 0
8 *7006:D *136:12 0
9 *7007:D *136:23 0
10 *69:51 *136:12 0
11 *90:6 *136:12 0
12 *94:12 *136:12 0
13 *124:12 *136:23 8.0216e-05
*RES
1 *7056:X *136:6 40 
2 *136:6 *136:12 42.2377 
3 *136:12 *6952:A0 20 
4 *136:6 *136:23 31.1137 
5 *136:23 *6951:A1 20 
*END

*D_NET *137 0.00137106
*CONN
*I *6952:A1 I *D sg13g2_mux2_1
*I *7057:X O *D sg13g2_dlygate4sd3_1
*CAP
1 *6952:A1 0
2 *7057:X 0.000247649
3 *137:8 0.000247649
4 *72:14 *137:8 0.000875761
5 *90:16 *137:8 0
*RES
1 *7057:X *137:8 44.0582 
2 *137:8 *6952:A1 40 
*END

*D_NET *138 0.00140205
*CONN
*I *6946:A0 I *D sg13g2_mux2_1
*I *7058:X O *D sg13g2_dlygate4sd3_1
*CAP
1 *6946:A0 0.000192676
2 *7058:X 0.000219553
3 *138:8 0.00041223
4 *6946:S *6946:A0 0
5 *6984:A *6946:A0 0
6 *7011:CLK *138:8 0
7 *7058:A *138:8 0.000129077
8 *96:34 *6946:A0 0
9 *130:8 *138:8 0.000448515
*RES
1 *7058:X *138:8 42.575 
2 *138:8 *6946:A0 41.8334 
*END

*D_NET *139 0.00295032
*CONN
*I *7071:A I *D sg13g2_buf_1
*I *7053:A I *D sg13g2_dlygate4sd3_1
*I *6997:Q O *D sg13g2_dfrbpq_1
*CAP
1 *7071:A 0
2 *7053:A 0.000563558
3 *6997:Q 0
4 *139:23 0.000911601
5 *139:6 0.00147516
6 *7053:A *140:29 0
7 *139:23 *140:8 0
8 *139:23 *140:29 0
9 *25:8 *7053:A 0
*RES
1 *6997:Q *139:6 40 
2 *139:6 *7053:A 47.1997 
3 *139:6 *139:23 31.9686 
4 *139:23 *7071:A 20 
*END

*D_NET *140 0.00749577
*CONN
*I *6960:A0 I *D sg13g2_mux2_1
*I *7072:A I *D sg13g2_buf_1
*I *6998:Q O *D sg13g2_dfrbpq_1
*CAP
1 *6960:A0 0
2 *7072:A 0.000228671
3 *6998:Q 0
4 *140:29 0.000629766
5 *140:8 0.00264267
6 *140:6 0.002414
7 *140:4 0.000629766
8 dout[11] *7072:A 0
9 *7053:A *140:29 0
10 *25:8 *140:29 0.000181695
11 *73:58 *140:29 0.000769196
12 *139:23 *140:8 0
13 *139:23 *140:29 0
*RES
1 *6998:Q *140:4 20 
2 *140:4 *140:6 20 
3 *140:6 *140:8 31.4974 
4 *140:8 *7072:A 42.4823 
5 *140:4 *140:29 48.9404 
6 *140:29 *6960:A0 20 
*END

*D_NET *141 0.0116106
*CONN
*I *6945:A0 I *D sg13g2_mux2_1
*I *7073:A I *D sg13g2_buf_1
*I *7012:Q O *D sg13g2_dfrbpq_1
*CAP
1 *6945:A0 0.000196923
2 *7073:A 0
3 *7012:Q 4.77143e-05
4 *141:10 0.00287549
5 *141:8 0.00312013
6 *141:8 *142:16 0.000270366
7 *141:10 *142:16 0.0044061
8 *7012:CLK *141:8 0.00029279
9 *7012:CLK *141:10 0.000401086
10 *7052:A *6945:A0 0
*RES
1 *7012:Q *141:8 41.339 
2 *141:8 *141:10 43.1158 
3 *141:10 *7073:A 40 
4 *141:8 *6945:A0 42.0497 
*END

*D_NET *142 0.0108276
*CONN
*I *6944:A0 I *D sg13g2_mux2_1
*I *7074:A I *D sg13g2_buf_1
*I *6989:Q O *D sg13g2_dfrbpq_1
*CAP
1 *6944:A0 0.000173098
2 *7074:A 0
3 *6989:Q 0.000370006
4 *142:16 0.00154063
5 *142:8 0.00208373
6 dout[2] *142:16 0
7 *6946:S *142:16 0
8 *6989:RESET_B *6944:A0 0
9 *7048:A *6944:A0 0
10 *87:12 *142:8 0.00136688
11 *87:12 *142:16 0.000616789
12 *101:49 *142:8 0
13 *101:51 *142:8 0
14 *101:51 *142:16 0
15 *141:8 *142:16 0.000270366
16 *141:10 *142:16 0.0044061
*RES
1 *6989:Q *142:8 46.283 
2 *142:8 *142:16 45.7397 
3 *142:16 *7074:A 20 
4 *142:8 *6944:A0 41.8334 
*END
